<?xml version="1.0" encoding="UTF-8"?>
<xrdMeasurements xmlns="http://www.xrdml.com/XRDMeasurement/1.5" xmlns:xsi="http://www.w3.org/2001/XMLSchema-instance" xsi:schemaLocation="http://www.xrdml.com/XRDMeasurement/1.5 http://www.xrdml.com/XRDMeasurement/1.5/XRDMeasurement.xsd" status="Completed">
	<comment>
		<entry>Configuration=Stage High-Troughput, Owner=User-1, Creation date=17/06/2014 14:41:46</entry>
		<entry>Goniometer=Theta/Theta; Minimum step size 2Theta:0.0001; Minimum step size Omega:0.0001</entry>
		<entry>Sample stage=High-throughput stage; Minimum step size X:0.01; Minimum step size Y:0.01; Minimum step size Z:0.001</entry>
		<entry>Diffractometer system=EMPYREAN</entry>
		<entry>Measurement program=C:\PANalytical\Data Collector\Programs\AIC_HT_1-60_0.003_4H.xrdmp, Identifier={7447D758-F150-460D-B219-0E4039050568}</entry>
		<entry>Batch program=C:\PANalytical\Data Collector\Programs\AIC_HT_1-60_0.003_16H_batch.xrdmp, Identifier={AA2A6D33-68DE-4039-B760-592579BB0847}</entry>
	</comment>
	<sample type="To be analyzed">
		<id>60000000_B12_BRC PhosCOF-1 B4 looooong_AIC_HT_1-60_0.003_16H_batch_20260828T154714</id>
		<name>60000000_BRC PhosCOF-1 B4 looooong_AIC_HT_1-60_0.003_16H_batch_20260828T154714</name>
		<preparedBy></preparedBy>
	</sample>
	<xrdMeasurement measurementType="Scan" status="Completed" sampleMode="Transmission">
		<comment>
			<entry>AIC_HT_1-60_0.02_50m</entry>
		</comment>
		<usedWavelength intended="K-Alpha">
			<kAlpha1 unit="Angstrom">1.5405980</kAlpha1>
			<kAlpha2 unit="Angstrom">1.5444260</kAlpha2>
			<kBeta unit="Angstrom">1.3922500</kBeta>
			<ratioKAlpha2KAlpha1>0.5000</ratioKAlpha2KAlpha1>
		</usedWavelength>
		<incidentBeamPath>
			<radius unit="mm">240.00</radius>
			<xRayTube id="1010048" name="Empyrean Cu LFF HR (9430 033 7310x) DK430560">
				<tension unit="kV">40</tension>
				<current unit="mA">40</current>
				<anodeMaterial>Cu</anodeMaterial>
				<focus type="Line">
					<length unit="mm">12.0</length>
					<width unit="mm">0.4</width>
					<takeOffAngle unit="deg">2.2</takeOffAngle>
				</focus>
			</xRayTube>
			<xRayMirror id="27030001" name="Focusing X-ray mirror for Cu radiation" hybrid="false">
				<crystal type="Graded" shape="Elliptic">W/Si</crystal>
				<acceptanceAngle unit="deg">0.800</acceptanceAngle>
				<length unit="mm">55.3</length>
			</xRayMirror>
			<sollerSlit id="21010002" name="Soller slits 0.04 rad.">
				<opening unit="rad">0.0400</opening>
			</sollerSlit>
			<mask id="22030008" name="Fixed mask 4 mm">
				<width unit="mm">4.00</width>
			</mask>
			<antiScatterSlit id="22010004" name="Fixed slit 1/2°" xsi:type="fixedAntiScatterSlitType">
				<height unit="mm">0.76</height>
			</antiScatterSlit>
			<divergenceSlit id="22010004" name="Fixed slit 1/2°" xsi:type="fixedDivergenceSlitType">
				<distanceToSample unit="mm">140.00</distanceToSample>
				<height unit="mm">0.76</height>
			</divergenceSlit>
		</incidentBeamPath>
		<sampleOffset>
			<position axis="Omega" unit="deg">0.0000</position>
		</sampleOffset>
		<diffractedBeamPath>
			<radius unit="mm">240.00</radius>
			<sollerSlit id="21010002" name="Soller slits 0.04 rad.">
				<opening unit="rad">0.0400</opening>
			</sollerSlit>
			<detector id="7010017" name="PIXcel3D 1x1 detector" xsi:type="areaDetectorType">
				<phd>
					<lowerLevel unit="%">25.0</lowerLevel>
					<upperLevel unit="%">100.0</upperLevel>
				</phd>
				<mode>Scanning</mode>
				<activeChannelsEquatorial>255</activeChannelsEquatorial>
				<activeChannelsAxial>255</activeChannelsAxial>
				<pitch unit="mm">0.0550</pitch>
				<readOutPeriod unit="seconds">0.785</readOutPeriod>
			</detector>
		</diffractedBeamPath>
		<scan appendNumber="0" mode="Continuous" scanAxis="Gonio" status="Completed">
			<header>
				<startTimeStamp>2026-08-29T03:54:20+01:00</startTimeStamp>
				<endTimeStamp>2026-08-29T07:56:15+01:00</endTimeStamp>
				<author>
					<name>Empyrean</name>
				</author>
				<source>
					<applicationSoftware version="4.4a">Data Collector</applicationSoftware>
					<instrumentControlSoftware version="8.3  20230607">EMPYREAN</instrumentControlSoftware>
					<instrumentID>0000000011155440</instrumentID>
				</source>
			</header>
			<dataPoints>
				<positions axis="2Theta" unit="deg">
					<startPosition>1.00164129</startPosition>
					<endPosition>58.32517312</endPosition>
				</positions>
				<positions axis="Omega" unit="deg">
					<startPosition>0.50082065</startPosition>
					<endPosition>29.16258656</endPosition>
				</positions>
				<positions axis="X" unit="mm">
					<commonPosition>-22.00</commonPosition>
				</positions>
				<positions axis="Y" unit="mm">
					<commonPosition>50.00</commonPosition>
				</positions>
				<positions axis="Z" unit="mm">
					<commonPosition>7.000</commonPosition>
				</positions>
				<commonCountingTime unit="seconds">198.645</commonCountingTime>
				<intensities unit="counts">20484 20531 20265 20304 20159 20087 19820 19876 20138 19567 19207 19222 19234 19014 18960 19079 19077 18847 18564 18522 18474 18429 18308 18203 18001 18178 17909 17904 17577 17800 17691 17669 17457 17308 17406 17035 17225 17067 17081 16903 16988 16898 16725 16730 16510 16494 16385 16366 16352 16251 16268 16035 16000 15956 15925 15841 15996 15902 15791 15665 15479 15403 15524 15473 15240 15199 15172 15085 15155 15395 14956 15008 15072 14935 14713 14983 14721 14715 14592 14640 14670 14467 14415 14490 14235 14489 14115 14278 14213 14041 14109 14411 14140 13997 14194 14160 13966 13779 13849 13887 13916 13718 13603 13430 13671 13587 13638 13685 13535 13562 13459 13582 13136 13391 13238 13432 13303 13288 13315 13227 13220 13092 12967 13061 13161 13106 12792 12818 13107 12854 12697 12647 12883 12767 12667 12956 12666 12398 12725 12718 12347 12246 12509 12520 12573 12350 12542 12454 12472 12260 12354 12111 12246 12274 12066 12140 12231 12353 11950 12029 12027 11978 11859 12074 12009 11827 11881 11876 11783 11825 11974 11786 11883 11900 11805 11742 11551 11748 11735 11798 11738 11401 11586 11607 11499 11493 11274 11287 11222 11419 11372 11456 11332 11326 11461 11360 11327 11217 11322 11256 11094 11163 11374 11328 11328 10953 11104 11009 10822 11121 11014 11062 11111 11106 10779 10955 11171 10714 10773 10956 10895 10935 10968 10945 10957 10873 10862 10647 10519 10739 10662 10602 10639 10664 10688 10589 10699 10566 10562 10700 10521 10561 10515 10799 10469 10410 10393 10344 10227 10424 10316 10351 10290 10156 10166 10247 10174 10336 10113 10146 10047 10007 10151 10235 9887 9766 9817 9989 9785 10056 9796 9879 9904 9797 9707 9835 9887 9653 9675 9697 9662 9546 9463 9716 9440 9647 9653 9786 9548 9380 9565 9484 9548 9550 9529 9555 9385 9311 9454 9449 9351 9345 9330 9417 9255 9147 9382 9256 9180 9348 9234 9191 9310 9301 9086 9181 9199 9128 9062 9114 9040 9100 8946 8907 9194 8975 8970 8998 8816 8845 8864 8794 8892 9110 8807 8823 8910 8738 8796 8915 8977 8797 8683 8774 8813 8787 8838 8723 8830 8736 8762 8655 8610 8516 8565 8451 8478 8702 8574 8611 8365 8476 8517 8616 8389 8526 8478 8485 8450 8492 8403 8424 8388 8323 8443 8434 8154 8322 8390 8437 8237 8413 8492 8475 8619 8261 8173 8342 8181 8381 8322 8172 8040 8248 8363 8135 8131 8280 8017 8197 8148 8116 8192 8121 7966 8037 8070 7983 7915 7961 7940 8172 8163 8046 8066 7884 8110 8011 7919 7986 7890 7938 7988 7941 7871 7946 7798 7924 8009 7851 7906 7853 7803 7842 7869 7869 7871 7948 7792 7783 7754 7773 7826 7831 7686 7773 7676 7775 7798 7658 7725 7721 7693 7799 7653 7594 7518 7677 7725 7585 7741 7639 7580 7702 7792 7562 7666 7622 7531 7401 7520 7575 7482 7571 7515 7599 7538 7770 7591 7469 7433 7458 7505 7551 7434 7465 7523 7606 7372 7579 7479 7473 7430 7482 7308 7347 7413 7416 7357 7327 7498 7364 7533 7546 7583 7409 7502 7491 7364 7362 7304 7450 7398 7460 7498 7334 7379 7335 7455 7445 7641 7334 7434 7424 7308 7306 7401 7342 7563 7355 7360 7361 7432 7562 7303 7338 7455 7326 7208 7470 7480 7327 7373 7382 7477 7425 7395 7399 7320 7454 7416 7302 7317 7386 7513 7402 7411 7352 7480 7356 7350 7410 7480 7419 7521 7633 7560 7468 7446 7448 7505 7569 7560 7573 7578 7464 7525 7677 7456 7557 7614 7602 7538 7470 7503 7533 7621 7531 7692 7527 7534 7602 7486 7528 7564 7658 7685 7490 7694 7733 7734 7665 7915 7673 7692 7720 7769 7701 7808 7730 7830 8028 7620 7843 7997 7704 7915 8016 7955 8000 7888 7889 8006 7943 8030 8013 8126 8004 7953 8143 8112 8037 8162 8209 8145 8274 8347 8104 8266 8245 8248 8490 8217 8409 8405 8348 8320 8572 8471 8547 8608 8528 8564 8669 8581 8554 8702 8554 8647 8885 8876 8608 8894 8839 8920 8851 8933 8864 9039 9067 9017 9193 8916 9210 9063 9034 9222 9069 9174 9021 9326 9412 9404 9276 9655 9511 9504 9452 9562 9739 9671 9808 9736 9986 10014 10005 9933 9876 10057 9979 10242 10197 10237 10258 10276 10186 10458 10443 10536 10532 10456 10717 10702 10765 10711 10827 11193 10916 11086 11139 11153 11356 11250 11258 11298 11383 11530 11587 11523 11621 11700 11838 11784 12025 12058 12102 12350 12202 11999 12410 12435 12472 12671 12602 12929 12799 12943 12705 12923 12999 13278 13278 13380 13466 13488 13593 13547 13998 14019 14045 14187 14289 14461 14645 14394 14662 14869 15097 14961 15056 15114 15384 15346 15487 15648 15785 15896 16119 16202 16366 16309 16650 16558 16741 17035 17115 17176 17358 17623 17475 18068 17783 18226 18257 18400 18390 18769 18822 19330 19379 19387 19280 19625 20015 20090 20389 20747 20736 21187 21207 21282 21470 22027 22273 22014 22586 22656 22923 23287 23653 23399 23911 24318 24336 24800 25161 25241 25325 25563 25826 26075 26008 26717 27199 27203 27550 28023 28246 28736 28822 29303 29319 29906 29947 30718 30916 31540 31803 31876 33035 33031 33396 34011 34306 34753 35727 36103 36437 36956 37686 37795 38937 39450 39760 40620 41115 42212 42642 43050 44307 45288 46231 46467 47827 48479 49294 50624 51572 52737 53455 54646 55921 57005 57968 59324 60104 60713 61889 62531 63195 63362 63652 63617 64466 64481 63770 63283 63302 62545 61832 61510 60781 59628 59048 58004 57523 56394 55322 54286 53490 52413 51548 50749 49870 49067 47821 47440 46755 45856 44694 44219 43331 42573 41992 41070 40359 39651 39154 38845 38339 37659 36659 35946 35451 35150 34690 34150 33568 32953 32523 32108 31357 31032 30569 30543 30142 29584 29193 28481 28319 28036 27722 27514 27023 26851 26456 25930 25891 25432 25393 25060 24704 24653 24330 24242 23586 23596 23201 23218 22819 22844 22682 22457 22105 21834 21745 21584 21288 20848 20875 20788 20591 20422 20368 20072 19945 19811 19699 19395 19326 19070 19070 18773 18649 18504 18460 18498 18074 17872 17926 17712 17777 17417 17540 17347 17135 17011 16998 16795 16674 16459 16492 16401 16133 16229 15722 15757 15811 15714 15283 15267 15204 15031 15009 14931 14950 14859 14357 14552 14209 14443 14048 14028 14125 13855 13693 13653 13405 13247 13202 13148 13039 12829 12751 12628 12385 12535 12253 12250 12113 11967 11678 11704 11565 11416 11326 11252 11257 10997 10877 10956 10634 10475 10365 10402 10169 10129 10194 9775 10018 9718 9575 9653 9253 9433 9155 9306 9116 8923 8904 8742 8575 8593 8421 8374 8181 8317 8321 8103 8009 7713 7831 7790 7681 7538 7523 7564 7409 7256 7245 7335 6936 7015 6988 6784 7009 6709 6711 6543 6608 6389 6421 6404 6383 6347 6127 6230 6167 6129 6019 6054 6049 5882 5848 5988 5733 5633 5586 5618 5548 5729 5444 5388 5332 5374 5255 5377 5246 5039 5413 5008 5076 5018 5038 4988 4956 4992 4912 4983 4795 4810 4779 4681 4679 4723 4600 4578 4689 4737 4664 4446 4585 4479 4616 4337 4444 4395 4309 4323 4239 4278 4266 4178 4215 4304 4095 4222 4090 4233 4069 4049 4058 3958 4098 3900 3987 3913 3953 4006 3854 4010 3794 3899 3905 3920 3765 3740 3814 3773 3762 3728 3739 3723 3651 3658 3712 3622 3666 3672 3659 3573 3533 3627 3526 3582 3584 3605 3641 3526 3442 3365 3387 3397 3473 3439 3440 3445 3360 3406 3404 3393 3353 3294 3399 3311 3368 3273 3400 3307 3249 3262 3307 3225 3188 3266 3175 3203 3261 3179 3171 3224 3281 3217 3256 3204 3165 3185 3183 3137 3113 3216 3134 3059 3145 3140 3128 3084 3198 3118 3104 3098 3097 3139 3083 3136 3126 3185 3044 3161 3114 3113 3144 3160 3040 3093 3086 2967 3003 3055 3094 3107 3004 3071 3075 3024 3108 2992 3073 2993 3078 3141 3074 3085 2988 3059 3240 3099 3031 3092 3121 3090 3110 3103 3094 3111 3077 3153 3098 3032 3172 3127 3182 3140 3079 3047 3123 3191 3205 3226 3197 3157 3241 3118 3142 3219 3146 3176 3177 3341 3242 3253 3322 3301 3176 3253 3341 3323 3408 3377 3380 3348 3336 3465 3306 3408 3344 3467 3285 3456 3479 3330 3487 3441 3541 3627 3503 3524 3616 3539 3569 3469 3732 3714 3619 3694 3704 3700 3914 3784 3806 3747 3888 3819 3859 3875 3860 3987 3993 3930 3978 4152 4063 4047 4224 4189 4157 4227 4255 4245 4355 4293 4311 4406 4466 4614 4555 4728 4739 4689 4671 4759 4798 4808 4902 4906 5049 4980 5169 5112 5288 5256 5309 5436 5340 5316 5551 5541 5717 5706 5646 5804 6012 6004 6120 6198 6129 6375 6374 6343 6417 6661 6737 6652 6768 6989 7005 7100 7249 7334 7366 7519 7948 7820 7798 7865 8189 8284 8363 8532 8793 8710 8924 9224 9177 9478 9488 9755 9983 10041 10299 10425 10614 10917 11065 11101 11454 11764 11805 12154 12226 12504 12780 12930 13129 13497 13742 13892 14193 14465 14811 15190 15361 15589 15687 15776 16110 16302 16535 16689 16945 17097 16742 16946 16997 17055 17042 17202 17264 16889 17037 16804 16682 16408 16228 16086 15998 15642 15421 15049 14922 14455 14386 14246 14037 13471 13243 12929 12649 12534 11920 11972 11750 11496 11231 10798 10846 10329 10268 9985 9885 9584 9397 9300 8946 8916 8586 8467 8248 8051 8044 7885 7598 7606 7470 7380 7188 7178 7041 6873 6735 6698 6613 6460 6251 6269 6156 6129 6022 6057 5848 5670 5599 5588 5526 5433 5271 5293 5213 5196 5080 5007 5019 4941 4847 4795 4860 4599 4700 4580 4508 4546 4541 4462 4454 4305 4255 4381 4127 4130 4232 4107 3924 3967 3969 3913 3886 3849 3831 3781 3774 3717 3662 3768 3629 3459 3692 3571 3593 3501 3434 3387 3455 3229 3459 3422 3423 3228 3273 3290 3182 3145 3238 3079 3144 3001 3087 3130 3019 3029 3178 2904 3073 2985 2875 2826 2940 2831 2805 2831 2794 2680 2787 2782 2803 2710 2705 2687 2708 2628 2719 2567 2619 2524 2696 2560 2678 2595 2509 2453 2601 2440 2424 2510 2463 2392 2490 2286 2350 2447 2416 2308 2334 2395 2359 2344 2342 2294 2267 2290 2303 2223 2266 2237 2303 2172 2246 2180 2256 2175 2238 2219 2189 2189 2185 2215 2166 2115 2150 2188 2103 2161 2212 2105 2129 2098 2125 2118 2054 2144 2097 2120 2115 2072 2083 2071 2124 2040 2033 2000 2014 2054 2049 2003 2000 2007 1996 2061 2043 2052 2025 2008 2017 1985 2071 1979 2120 1999 2039 2038 2032 2102 2084 1997 1981 1994 2088 2051 2081 2008 1978 2019 1958 2019 2022 2039 2155 2049 2092 1950 2042 2001 2090 2075 2057 2108 2025 2119 2058 2064 1973 2130 1985 1971 2079 2101 2076 2028 2121 2119 2168 2183 2063 2056 2176 2221 2136 2222 2261 2164 2246 2197 2196 2220 2255 2312 2267 2238 2266 2292 2319 2310 2393 2433 2413 2317 2311 2414 2482 2398 2440 2465 2540 2504 2508 2554 2597 2521 2628 2619 2618 2624 2706 2724 2684 2789 2704 2722 2799 2834 2873 2952 2911 2902 2846 2984 2966 2920 3009 3050 3061 3057 2976 3101 3218 3267 3221 3199 3122 3320 3245 3369 3384 3262 3305 3356 3256 3372 3337 3346 3410 3409 3235 3401 3315 3334 3359 3244 3224 3229 3395 3299 3241 3331 3196 3285 3176 3219 3219 3130 3162 3067 3204 3074 3078 2974 3031 2938 2971 2976 2936 2812 2985 2858 2877 2815 2881 2823 2776 2737 2771 2801 2759 2724 2733 2706 2633 2725 2659 2689 2612 2568 2503 2628 2616 2578 2470 2475 2466 2482 2443 2528 2436 2416 2445 2435 2444 2452 2501 2467 2297 2427 2380 2477 2411 2363 2382 2447 2383 2225 2355 2262 2322 2337 2283 2258 2270 2174 2253 2295 2246 2233 2241 2212 2204 2209 2325 2228 2261 2190 2233 2247 2171 2182 2189 2133 2172 2174 2142 2123 2146 2188 2183 2166 2096 2053 2112 2082 2040 2060 2105 2118 2041 2017 2134 2056 1994 2055 2056 2036 1974 2016 1889 1924 1987 2044 2068 1939 1904 1938 1955 1923 1957 1992 1935 1979 1989 1948 2008 1902 1936 1830 1933 1914 1926 1923 1974 1897 1845 1872 1864 1941 1946 1991 1898 1913 1834 1927 1932 1871 1904 1894 1844 1949 1901 1844 1841 1976 1884 1869 1842 1905 1994 1913 1916 1932 2002 2061 1909 1978 1973 2004 1988 1991 1997 2055 2062 2041 2038 2053 2053 2122 2149 2114 2141 2140 2101 2139 2259 2181 2159 2124 2162 2156 2251 2237 2132 2155 2217 2183 2350 2204 2261 2285 2269 2221 2161 2255 2270 2271 2326 2237 2206 2170 2207 2167 2182 2138 2203 2127 2216 2121 2087 2059 2165 2076 2039 2054 2112 1950 2062 2040 1944 1918 1942 1980 1978 1928 1821 1984 1974 1884 1941 1902 1841 1890 1841 1927 1883 1873 1821 1887 1816 1797 1816 1721 1774 1733 1839 1705 1769 1760 1747 1772 1706 1753 1753 1735 1682 1734 1699 1668 1685 1655 1760 1605 1657 1539 1509 1628 1576 1583 1601 1632 1679 1613 1661 1561 1561 1578 1613 1540 1521 1605 1477 1498 1548 1558 1509 1546 1511 1556 1564 1476 1435 1469 1470 1547 1513 1392 1504 1467 1550 1474 1492 1521 1429 1390 1449 1441 1422 1395 1472 1443 1397 1450 1511 1403 1380 1472 1319 1480 1441 1383 1407 1388 1384 1354 1408 1394 1404 1364 1400 1384 1302 1410 1445 1397 1339 1384 1461 1354 1269 1309 1242 1336 1325 1347 1315 1319 1361 1385 1304 1352 1353 1387 1294 1334 1299 1383 1308 1361 1329 1347 1288 1315 1304 1333 1322 1270 1274 1282 1277 1288 1267 1317 1297 1324 1297 1302 1290 1308 1284 1276 1268 1322 1341 1269 1247 1296 1294 1225 1312 1280 1273 1268 1291 1297 1262 1275 1229 1258 1284 1277 1297 1300 1255 1224 1323 1280 1284 1276 1254 1317 1188 1242 1338 1289 1244 1321 1187 1227 1308 1220 1255 1272 1221 1277 1281 1295 1276 1288 1305 1242 1242 1262 1240 1315 1232 1205 1211 1257 1294 1228 1227 1212 1236 1249 1223 1247 1251 1261 1262 1221 1220 1198 1212 1232 1240 1268 1236 1254 1275 1241 1265 1225 1214 1214 1266 1211 1264 1215 1251 1242 1259 1272 1206 1224 1220 1232 1219 1228 1192 1182 1193 1280 1201 1200 1267 1238 1279 1175 1195 1215 1256 1230 1192 1272 1291 1224 1160 1244 1217 1177 1211 1223 1150 1268 1200 1196 1246 1178 1285 1238 1236 1234 1230 1260 1286 1226 1192 1257 1248 1193 1255 1186 1222 1197 1215 1220 1242 1219 1207 1198 1216 1175 1246 1235 1190 1132 1221 1255 1166 1175 1174 1242 1227 1139 1164 1194 1201 1241 1192 1217 1265 1229 1161 1190 1220 1186 1248 1197 1171 1244 1208 1220 1180 1272 1171 1285 1216 1203 1218 1227 1211 1246 1202 1179 1143 1185 1181 1176 1119 1205 1192 1194 1264 1260 1206 1272 1254 1251 1228 1203 1219 1156 1279 1187 1210 1270 1197 1238 1208 1219 1213 1193 1185 1262 1257 1207 1184 1278 1215 1197 1222 1191 1172 1221 1177 1274 1248 1194 1197 1184 1275 1207 1187 1215 1250 1231 1127 1228 1173 1211 1142 1223 1209 1208 1243 1254 1211 1266 1236 1138 1226 1179 1179 1227 1288 1164 1211 1188 1185 1236 1219 1166 1208 1242 1229 1263 1214 1201 1182 1189 1197 1253 1248 1164 1246 1227 1231 1204 1207 1207 1204 1202 1254 1201 1268 1216 1230 1213 1219 1277 1241 1155 1274 1237 1326 1232 1272 1238 1213 1214 1192 1197 1216 1270 1215 1204 1165 1181 1288 1247 1246 1268 1268 1262 1275 1229 1202 1278 1292 1238 1234 1252 1245 1294 1252 1299 1269 1260 1265 1292 1322 1281 1207 1273 1276 1297 1291 1341 1274 1296 1256 1348 1264 1324 1280 1237 1303 1232 1285 1306 1296 1266 1258 1329 1274 1344 1384 1386 1329 1332 1290 1309 1323 1400 1424 1280 1391 1333 1362 1326 1395 1348 1340 1326 1335 1289 1430 1335 1387 1398 1388 1403 1363 1333 1411 1384 1394 1390 1371 1435 1368 1392 1332 1433 1504 1394 1411 1474 1463 1411 1376 1406 1388 1484 1462 1447 1438 1469 1378 1396 1458 1415 1487 1406 1422 1474 1429 1443 1508 1469 1431 1455 1416 1423 1413 1449 1497 1391 1386 1388 1473 1438 1453 1357 1416 1497 1424 1377 1406 1405 1364 1411 1464 1405 1351 1341 1440 1399 1406 1324 1475 1407 1383 1331 1360 1340 1393 1367 1388 1412 1370 1392 1385 1408 1389 1368 1370 1333 1327 1314 1344 1411 1314 1341 1325 1312 1309 1337 1375 1442 1319 1359 1355 1335 1277 1326 1329 1334 1362 1346 1335 1371 1400 1324 1370 1334 1334 1324 1428 1339 1333 1312 1325 1346 1340 1339 1315 1314 1337 1321 1347 1315 1278 1275 1372 1282 1319 1400 1308 1332 1306 1334 1343 1307 1339 1337 1265 1281 1359 1322 1316 1336 1313 1269 1258 1309 1325 1372 1369 1311 1314 1278 1331 1327 1227 1311 1278 1316 1359 1291 1314 1322 1221 1341 1323 1303 1323 1303 1323 1284 1299 1333 1326 1267 1322 1182 1319 1318 1312 1303 1370 1356 1316 1262 1319 1291 1303 1326 1273 1349 1341 1292 1274 1307 1336 1317 1303 1318 1366 1344 1369 1340 1326 1269 1294 1238 1298 1273 1308 1281 1346 1277 1353 1335 1280 1291 1292 1284 1384 1282 1358 1342 1347 1292 1274 1386 1291 1313 1329 1257 1320 1253 1275 1296 1292 1346 1332 1322 1321 1326 1252 1327 1311 1331 1343 1300 1344 1324 1353 1295 1311 1304 1307 1312 1313 1303 1295 1244 1302 1286 1291 1274 1281 1294 1361 1342 1272 1240 1275 1320 1337 1184 1346 1300 1352 1347 1301 1284 1313 1313 1326 1289 1255 1350 1277 1270 1260 1364 1326 1320 1358 1270 1309 1294 1331 1250 1365 1332 1346 1338 1330 1366 1303 1278 1312 1270 1334 1363 1305 1276 1278 1341 1351 1318 1324 1327 1271 1303 1295 1299 1282 1387 1314 1355 1323 1334 1320 1309 1343 1279 1353 1325 1253 1323 1312 1282 1318 1327 1329 1376 1377 1335 1272 1294 1354 1326 1298 1305 1319 1333 1338 1295 1295 1303 1323 1366 1298 1247 1299 1350 1325 1356 1336 1331 1358 1394 1293 1358 1368 1338 1310 1263 1382 1311 1424 1445 1382 1317 1325 1364 1278 1279 1333 1301 1354 1336 1390 1307 1311 1348 1392 1389 1348 1409 1370 1421 1392 1303 1307 1337 1259 1344 1322 1327 1384 1262 1394 1347 1337 1332 1337 1321 1400 1273 1450 1441 1402 1365 1331 1339 1375 1422 1351 1287 1384 1351 1404 1398 1413 1379 1382 1375 1347 1428 1350 1369 1377 1413 1440 1452 1363 1338 1375 1406 1370 1497 1409 1443 1423 1463 1322 1506 1417 1434 1390 1487 1415 1434 1395 1442 1435 1405 1411 1508 1433 1416 1456 1385 1453 1473 1505 1453 1428 1513 1498 1492 1429 1525 1503 1379 1437 1483 1499 1448 1459 1464 1494 1486 1574 1497 1547 1505 1530 1481 1533 1497 1545 1500 1529 1453 1412 1551 1510 1586 1535 1560 1512 1509 1533 1528 1566 1568 1559 1621 1534 1598 1547 1634 1600 1592 1663 1593 1611 1621 1525 1582 1676 1561 1558 1692 1619 1619 1682 1743 1681 1662 1700 1681 1756 1703 1760 1716 1788 1779 1833 1741 1768 1838 1775 1861 1876 1868 1879 1883 1935 1840 1888 1826 2016 1878 1920 2019 2017 2005 1972 2004 2054 2046 2100 2141 2124 2132 2209 2127 2179 2185 2237 2273 2248 2238 2306 2303 2364 2336 2381 2367 2462 2487 2547 2558 2546 2632 2621 2595 2623 2668 2694 2726 2733 2707 2855 2834 2775 2884 2890 2917 3049 2995 3033 2984 3050 3152 3049 3060 3065 3196 3253 3194 3186 3222 3237 3338 3294 3297 3333 3416 3331 3280 3337 3332 3472 3407 3387 3418 3468 3338 3357 3490 3374 3446 3369 3552 3526 3400 3417 3455 3558 3458 3425 3422 3382 3373 3446 3516 3403 3433 3339 3319 3299 3293 3299 3330 3366 3281 3202 3233 3270 3309 3248 3164 3108 3116 3223 3149 3164 3161 3145 3075 3191 2997 3094 3028 3040 2937 3025 2922 2850 2854 2835 2971 2854 2924 2838 2819 2845 2844 2834 2779 2764 2703 2797 2863 2757 2727 2660 2672 2743 2554 2707 2714 2608 2639 2634 2646 2598 2600 2653 2505 2557 2606 2558 2595 2560 2545 2473 2492 2429 2521 2530 2519 2421 2412 2500 2465 2393 2460 2438 2457 2398 2455 2421 2396 2400 2318 2364 2395 2380 2386 2404 2297 2344 2366 2385 2366 2314 2320 2295 2362 2369 2266 2328 2255 2435 2327 2320 2265 2273 2251 2279 2270 2247 2249 2293 2240 2278 2256 2335 2260 2329 2230 2280 2349 2301 2276 2251 2323 2369 2298 2248 2377 2260 2239 2329 2221 2256 2312 2279 2388 2210 2264 2249 2239 2223 2260 2202 2259 2239 2289 2216 2229 2264 2290 2209 2281 2224 2250 2332 2252 2271 2333 2289 2220 2334 2332 2313 2299 2315 2218 2283 2266 2282 2321 2293 2268 2249 2286 2288 2272 2382 2239 2284 2310 2278 2282 2272 2283 2250 2205 2286 2340 2249 2327 2229 2238 2181 2292 2190 2261 2124 2361 2272 2278 2219 2312 2289 2211 2188 2310 2302 2256 2326 2238 2129 2216 2304 2230 2250 2178 2234 2207 2123 2233 2177 2159 2257 2204 2213 2224 2199 2190 2121 2234 2172 2203 2242 2171 2157 2222 2131 2150 2286 2156 2041 2139 2184 2081 2124 2176 2098 2132 2093 2107 2025 1933 2062 2200 2127 2109 2155 2185 2118 2198 2121 2093 2081 2081 2108 2142 2017 2114 2172 2124 2026 2060 2161 2097 2037 2046 2028 2022 2031 2030 2056 2134 2069 2059 2031 2000 2022 2085 2130 2131 1984 2057 2061 2140 2117 2022 1974 2085 2037 2083 2099 2078 1975 2044 2089 1963 2013 2094 2079 1938 2023 2100 2036 1987 2008 2076 2048 2056 2127 2070 2009 2058 1968 1991 1931 2015 2008 2022 2057 2007 2012 2016 2013 2082 1869 2039 2137 2034 2045 2072 2086 2099 2060 1970 2107 2045 2060 2042 2075 2015 2005 2048 2000 2078 2020 2028 2087 2009 2072 2034 1987 2029 2067 2062 2085 2036 2024 1977 2026 1920 2073 2059 1952 1962 1993 1995 2042 2017 2130 1966 2000 2088 2039 1909 1998 2034 1950 2083 2035 1982 2057 2039 1975 1984 2083 2057 1949 2060 2014 2042 2056 2101 1973 1983 2054 1973 1961 2024 2043 2018 2003 2099 1925 2050 2011 2012 1994 1936 1978 1968 1887 2045 2110 2029 1953 1988 2006 1978 1969 2016 1971 1991 1954 2004 2032 1993 2043 1886 1965 1980 2029 2030 1983 1987 1952 1999 1978 2048 1991 2012 1983 2018 1985 2010 2000 2025 1955 2067 1962 2012 1947 2008 1981 1903 1980 2043 1988 1987 2039 1925 2012 1978 1954 1867 1911 1932 1924 1890 1991 2027 2016 1950 2009 2051 1950 1960 1907 2010 1954 1973 2001 1992 1979 1942 1945 1951 1949 2024 1917 1930 1962 1997 1919 1886 1961 1987 1911 1969 1974 2022 1966 1876 1978 1985 1903 1975 1931 1949 1976 1929 1966 1972 1964 1948 1998 1949 1962 1893 1917 1956 1986 1909 1988 1961 2022 2023 2014 1942 1913 1922 1874 1935 1971 1945 1945 1815 1908 2015 2005 1917 1955 1938 1912 1884 1847 1997 1884 1906 1941 1904 2036 1874 1927 1949 1831 1917 1875 1884 1921 1907 1973 1978 1966 1890 1986 2011 1995 1932 1969 1979 1859 1985 1924 1864 1979 1986 1918 1953 1968 1925 1991 1927 1918 1904 1928 1933 1935 1964 1876 1913 2000 1903 1963 1876 1911 1950 1950 1988 1887 1930 1835 1837 1987 1992 1939 1953 1939 1950 1983 1934 1906 1964 1876 1911 2025 1989 1912 1910 1988 1930 1983 1881 1949 1956 1862 1967 1922 1945 1787 1977 1949 2021 1854 1960 1982 1968 1963 1934 1980 1983 1982 1968 2025 1935 1890 1969 1926 1980 1979 2015 1973 1990 1997 1963 1898 1956 1951 1947 1986 2010 2006 2058 2013 1942 1996 2005 2047 2031 2015 2002 2012 2053 1933 2012 1965 2021 1999 2063 1955 1991 1947 2030 2022 1987 1972 2015 2054 1864 2075 1973 2030 2049 1889 1991 2004 2028 1950 1943 2010 1958 2015 1997 2015 1974 2035 1991 2133 1907 2046 1998 2002 1980 2024 2021 1964 2064 2041 2013 1992 2001 2016 2026 2059 2114 2096 2044 2017 2064 2073 2008 1971 1961 2059 2007 2002 2033 1997 2066 2026 2090 2024 2033 2103 1986 2032 2055 2031 2035 1959 2019 2010 1974 2054 2054 1972 2042 2041 2048 2000 2014 2001 2077 1968 2075 2024 1983 1986 2099 2022 2032 2037 2093 2059 2085 2058 2039 2042 2083 2021 2053 2072 2116 2082 1996 2055 2045 2054 2124 2021 2058 2099 2036 2019 2013 1980 2078 2025 2053 2070 2001 2016 2094 2090 2058 2089 1929 2074 2020 2135 2188 2057 2051 2165 2102 2189 2054 2086 2101 2062 2075 2125 2047 2073 2134 2092 2092 2073 2092 2075 2065 2096 2101 2028 2099 2083 2106 2059 2090 2041 2100 2114 2060 2066 2125 2099 2034 2138 2145 2102 2197 2156 2167 2123 2145 2201 2025 2142 2095 2132 2183 2131 2100 2078 2169 2170 2094 2152 2176 2095 2142 2088 2138 2166 2106 2162 2104 2177 2133 2110 2221 2181 2169 2197 2184 2179 2150 2241 2190 2206 2236 2216 2165 2125 2171 2198 2116 2138 2265 2171 2190 2315 2154 2119 2216 2259 2194 2209 2168 2191 2172 2112 2165 2241 2150 2200 2293 2160 2214 2183 2182 2259 2189 2199 2144 2269 2233 2311 2214 2274 2238 2276 2294 2211 2247 2198 2224 2244 2166 2216 2221 2246 2334 2249 2331 2285 2236 2309 2276 2176 2213 2211 2172 2236 2229 2261 2183 2153 2213 2281 2198 2250 2354 2283 2159 2292 2269 2325 2308 2209 2258 2218 2304 2313 2333 2258 2249 2238 2237 2270 2327 2279 2300 2340 2301 2371 2262 2314 2324 2301 2358 2209 2257 2366 2292 2230 2308 2373 2248 2326 2281 2350 2337 2229 2396 2315 2332 2325 2266 2319 2310 2238 2279 2320 2349 2368 2329 2334 2386 2328 2256 2390 2283 2343 2318 2369 2293 2429 2404 2297 2372 2428 2467 2401 2362 2354 2362 2421 2491 2463 2482 2262 2413 2437 2391 2326 2355 2377 2401 2305 2405 2464 2359 2449 2374 2410 2396 2505 2379 2396 2470 2381 2476 2438 2458 2396 2452 2393 2521 2454 2472 2402 2338 2442 2448 2499 2466 2488 2528 2494 2587 2496 2453 2545 2560 2411 2577 2453 2573 2529 2470 2530 2450 2412 2534 2572 2609 2532 2576 2563 2546 2604 2545 2524 2656 2601 2583 2751 2577 2686 2635 2693 2579 2711 2638 2660 2694 2727 2635 2709 2649 2692 2718 2747 2769 2727 2725 2652 2781 2718 2797 2785 2824 2830 2813 2820 2783 2897 2858 2736 2904 2765 2865 2873 2737 2865 2841 2796 2806 2806 2841 2775 2802 2874 2892 2858 2794 2797 2837 2838 2792 2797 2838 2795 2867 2890 2797 2843 2896 2892 2858 2880 2755 2849 2909 2829 2766 2832 2793 2834 2842 2797 2802 2786 2805 2791 2817 2786 2825 2810 2777 2825 2786 2799 2807 2851 2810 2697 2814 2818 2804 2800 2845 2756 2802 2747 2780 2871 2800 2778 2743 2864 2751 2813 2736 2812 2807 2784 2751 2791 2816 2804 2809 2785 2777 2734 2794 2726 2783 2794 2764 2807 2888 2845 2825 2791 2905 2919 2825 2753 2806 2859 2813 2747 2804 2803 2706 2744 2804 2774 2861 2767 2925 2756 2839 2829 2775 2846 2795 2790 2788 2901 2735 2784 2872 2769 2792 2905 2838 2771 2788 2806 2772 2823 2828 2757 2746 2869 2855 2853 2864 2917 2788 2802 2908 2899 2854 2845 2891 2785 2927 2964 2934 2843 2786 2850 2894 2871 2795 2838 2892 2914 2819 2887 2912 2888 2857 2915 2941 2746 2841 2855 2893 2892 2962 2888 2945 2872 2865 2822 2883 2807 2840 2910 3036 2834 2970 2947 2883 2912 3013 2897 2968 2974 2965 2972 2947 2933 2981 2887 2932 2958 2919 2985 2915 3030 2957 2960 2893 2923 2979 3000 2941 2862 3045 3024 2991 2972 2907 2976 2998 3078 2916 2994 2959 2952 3021 3080 2985 3008 2972 3000 2996 2991 3046 2991 3046 2987 3029 2945 3004 3031 3017 3069 3073 3109 3040 3044 3050 3016 3154 3034 3042 3047 3069 3057 3048 3041 3039 3069 2977 3013 2941 3061 3047 3105 3023 3019 3107 3040 3011 3069 3036 2936 3005 3012 3048 3070 2952 3019 3062 3051 3001 3013 2980 3017 3092 3155 3014 3004 2958 3056 2936 3094 3025 2961 3060 2983 3115 3052 3096 3023 3076 3140 3012 3076 3048 2987 3122 3067 3096 3110 2967 3043 3026 3126 3032 3059 3055 3137 3082 3063 3090 3158 3012 3013 3056 3060 3074 2999 3058 3044 3001 3046 3019 3068 3082 3118 3084 2996 3167 3037 3226 2919 3113 3014 3107 3121 3174 3063 3025 3113 3069 3208 3071 3107 3002 3147 3119 3144 2965 3009 3076 3108 3075 3179 3138 3196 3103 3159 3032 3066 3100 3160 3117 3150 3105 3097 2988 3054 3175 3061 3261 3197 3148 3182 3112 3102 3160 3176 3142 3124 3108 3069 3092 3132 3213 3081 3111 3106 3058 2994 3133 3091 3175 3118 3178 3203 3139 3220 3062 3203 3165 3090 3113 3168 3266 3204 3133 3245 3123 3113 3187 3187 3122 3215 3216 3151 3182 3181 3221 3272 3202 3109 3267 3241 3206 3205 3086 3295 3227 3168 3240 3235 3221 3178 3222 3157 3269 3233 3154 3329 3193 3237 3276 3312 3149 3215 3276 3197 3216 3321 3247 3268 3199 3331 3218 3286 3248 3285 3282 3300 3171 3262 3265 3347 3305 3259 3238 3397 3271 3252 3420 3325 3318 3257 3237 3294 3308 3325 3269 3241 3327 3380 3256 3230 3328 3315 3365 3281 3311 3351 3381 3346 3368 3311 3306 3332 3347 3507 3367 3292 3337 3360 3258 3286 3278 3361 3337 3394 3385 3281 3273 3416 3212 3455 3384 3367 3386 3391 3273 3393 3447 3392 3333 3404 3358 3273 3280 3301 3347 3427 3460 3440 3367 3399 3458 3365 3479 3386 3360 3375 3342 3320 3378 3384 3389 3402 3334 3526 3445 3387 3486 3489 3404 3318 3489 3364 3418 3422 3413 3504 3283 3528 3383 3391 3367 3493 3304 3621 3387 3466 3431 3442 3422 3437 3477 3354 3485 3373 3499 3343 3435 3647 3518 3486 3560 3508 3522 3441 3393 3505 3414 3581 3526 3419 3502 3512 3594 3491 3621 3543 3541 3380 3525 3485 3519 3509 3518 3513 3509 3509 3637 3598 3561 3505 3537 3459 3516 3532 3430 3561 3577 3636 3498 3536 3525 3496 3524 3672 3590 3526 3553 3644 3476 3548 3545 3573 3704 3584 3605 3676 3611 3516 3577 3547 3518 3611 3648 3613 3525 3520 3541 3609 3574 3612 3650 3652 3767 3651 3608 3643 3665 3643 3588 3573 3591 3602 3649 3703 3643 3594 3542 3572 3527 3642 3653 3618 3625 3589 3645 3602 3651 3525 3634 3663 3683 3652 3571 3634 3649 3584 3625 3623 3539 3701 3561 3577 3770 3702 3609 3677 3657 3762 3666 3730 3675 3768 3633 3708 3590 3649 3612 3666 3684 3646 3729 3638 3744 3692 3757 3608 3685 3614 3734 3673 3627 3739 3626 3601 3662 3772 3637 3706 3710 3725 3631 3626 3671 3687 3620 3600 3625 3669 3643 3709 3700 3672 3772 3615 3510 3795 3727 3687 3666 3768 3732 3716 3691 3706 3797 3678 3729 3695 3641 3746 3767 3828 3699 3810 3817 3745 3747 3773 3659 3793 3813 3750 3729 3851 3716 3861 3746 3740 3774 3813 3763 3659 3740 3691 3811 3841 3782 3825 3811 3876 3810 3824 3755 3848 3788 3754 3778 3748 3749 3759 3750 3804 3820 3721 3711 3805 3786 3757 3775 3895 3781 3799 3902 3797 3739 3874 3746 3790 3833 3796 3861 3780 3787 3856 3942 3795 3806 3847 3822 3755 3834 3819 3809 3854 3808 3859 3909 3839 3848 3811 3880 3879 3853 3969 3855 3783 3763 3729 3826 3863 3887 3978 3816 3938 3728 3819 3968 3855 3810 3842 3880 3823 3826 3901 3912 3789 3722 3809 3781 3860 3854 3899 3830 3831 3877 3818 3805 3813 3788 3795 3792 3901 3943 3847 3864 3887 3846 3809 3865 3852 3736 3872 3854 3801 3844 3978 3789 3843 3866 3814 3903 3819 3781 3922 3829 3750 3690 3723 3993 3858 3967 3830 4000 3848 3799 3824 3826 3863 3901 3856 3793 3853 3848 3897 3828 3829 3775 3801 3892 3818 3943 3879 3796 3859 3912 3941 3916 3903 3884 3746 3917 3868 4016 3779 3856 3863 3895 3844 3803 3858 3857 3868 3945 3784 3772 3862 3810 3809 3807 3887 3877 3855 3845 3823 3817 3709 3831 3809 3789 3797 3849 3868 4037 3870 3901 3808 3809 3847 3875 3950 3849 3829 3819 3909 3890 3891 3871 3854 3865 3951 3806 3904 3880 3877 3894 3898 4014 3854 3930 3909 3890 3939 3877 3948 3824 4005 3810 3961 3888 3871 3898 3904 3913 3939 3936 3942 4007 3931 3955 3966 3829 3817 3878 3984 4022 3984 3934 3887 4018 3953 4166 3956 4009 3980 3993 3990 4033 3985 3925 3977 3976 4036 3976 3935 3874 4017 4025 4017 4085 3957 4071 4119 3999 4035 4074 4064 4142 4102 4064 4086 4078 4036 4020 4107 4167 4061 3900 4079 4105 4173 4095 4116 4227 4109 4133 4125 4208 4200 4227 4157 4098 4123 4374 4272 4210 4220 4213 4315 4137 4260 4282 4208 4154 4172 4224 4268 4252 4207 4218 4250 4259 4144 4193 4364 4188 4291 4249 4271 4227 4294 4252 4213 4225 4301 4345 4249 4270 4299 4293 4345 4344 4221 4306 4349 4199 4401 4361 4311 4394 4305 4368 4417 4475 4435 4322 4460 4342 4287 4215 4545 4474 4379 4511 4308 4343 4434 4400 4476 4402 4286 4508 4605 4430 4465 4399 4511 4394 4376 4524 4338 4392 4357 4460 4478 4568 4485 4568 4422 4523 4435 4479 4592 4465 4555 4467 4502 4439 4517 4616 4371 4533 4521 4451 4550 4596 4512 4543 4465 4647 4499 4525 4650 4455 4551 4489 4489 4521 4463 4509 4398 4434 4440 4376 4516 4509 4494 4484 4402 4422 4406 4353 4415 4448 4457 4441 4496 4492 4487 4490 4423 4536 4476 4584 4558 4455 4462 4445 4543 4453 4419 4352 4419 4409 4508 4344 4443 4349 4422 4428 4438 4448 4474 4398 4547 4338 4274 4352 4342 4251 4459 4402 4384 4347 4389 4407 4257 4353 4280 4484 4315 4395 4309 4282 4476 4269 4327 4432 4438 4293 4324 4314 4289 4400 4300 4316 4279 4372 4338 4404 4281 4311 4420 4291 4249 4329 4372 4266 4261 4336 4219 4372 4401 4357 4347 4342 4396 4331 4236 4276 4218 4420 4154 4197 4285 4279 4216 4328 4300 4270 4191 4246 4223 4382 4317 4403 4215 4276 4212 4200 4297 4335 4285 4306 4252 4262 4283 4404 4242 4318 4102 4297 4216 4313 4209 4307 4285 4219 4342 4068 4204 4247 4225 4275 4225 4343 4158 4274 4218 4160 4157 4298 4181 4276 4277 4244 4236 4232 4183 4305 4257 4229 4188 4143 4265 4054 4232 4201 4199 4229 4213 4145 4179 4173 4192 4264 4049 4131 4176 4211 4174 4133 4208 4127 4135 4161 4105 4176 4118 4119 4062 4153 4023 4071 4150 4016 4035 4108 4098 4140 4041 3992 4025 4020 4121 3999 3993 4065 3982 4126 3954 4109 4029 4112 3981 4015 4001 4041 3850 4087 3986 4137 3910 3955 4050 4113 4025 3956 4004 3986 3997 3978 4027 4070 4064 4040 4083 4075 4046 4014 3996 3887 4027 3946 3982 3921 4022 3947 3992 3879 3991 4031 3971 3983 3884 3973 3926 4038 4049 4023 3807 3916 3869 3870 3890 3801 3934 3962 3883 3907 3971 3845 3920 3924 3828 3820 3833 3806 3832 3868 3935 3834 3838 3951 3906 3866 3932 3822 3816 3853 3830 3876 3718 3842 3849 3835 3858 3984 3819 3835 3799 3834 3816 3799 3833 3892 3855 3705 3848 3852 3871 3801 3832 3852 3852 3750 3797 3887 3731 3938 3783 3808 3879 3846 3932 3813 3845 3782 3916 3809 3775 3826 3766 3928 3853 3816 3859 3821 3854 3922 3751 3832 3830 3730 3700 3850 3845 3779 3681 3871 3834 3849 3946 3760 3823 3818 3818 3782 3798 3767 3765 3798 3854 3731 3769 3786 3725 3792 3784 3804 3720 3758 3714 3731 3740 3801 3700 3717 3752 3693 3832 3835 3816 3734 3759 3723 3867 3709 3690 3791 3614 3680 3793 3795 3807 3746 3705 3651 3756 3774 3831 3759 3785 3826 3797 3718 3714 3587 3731 3798 3811 3762 3747 3825 3732 3726 3654 3751 3687 3731 3667 3713 3755 3711 3669 3702 3693 3734 3764 3702 3744 3775 3670 3680 3723 3712 3734 3648 3762 3705 3758 3692 3721 3728 3688 3802 3729 3723 3572 3576 3732 3656 3636 3600 3679 3669 3628 3636 3679 3721 3740 3519 3643 3558 3570 3669 3626 3654 3618 3674 3675 3535 3634 3636 3499 3607 3575 3561 3583 3564 3649 3656 3623 3593 3513 3631 3573 3656 3488 3580 3701 3484 3581 3614 3539 3489 3615 3639 3509 3515 3494 3649 3540 3591 3627 3566 3649 3551 3485 3559 3522 3480 3554 3644 3652 3525 3569 3529 3561 3501 3505 3380 3511 3619 3408 3524 3489 3570 3501 3501 3469 3487 3517 3526 3505 3501 3510 3401 3489 3509 3431 3447 3527 3597 3529 3450 3423 3433 3402 3528 3543 3488 3555 3544 3424 3545 3462 3429 3479 3410 3415 3530 3466 3411 3545 3386 3454 3517 3444 3377 3422 3343 3420 3524 3361 3441 3350 3428 3468 3401 3331 3404 3547 3385 3448 3457 3386 3378 3410 3422 3400 3424 3547 3253 3425 3461 3436 3417 3358 3424 3466 3323 3434 3438 3358 3378 3298 3425 3418 3271 3480 3308 3479 3447 3503 3322 3364 3404 3355 3318 3316 3423 3395 3274 3428 3423 3403 3381 3304 3332 3439 3339 3379 3262 3397 3496 3470 3228 3373 3358 3247 3334 3387 3351 3340 3336 3372 3315 3272 3316 3380 3374 3343 3316 3348 3309 3251 3286 3299 3241 3306 3266 3283 3305 3204 3257 3372 3382 3308 3345 3395 3237 3363 3280 3338 3263 3335 3255 3251 3231 3355 3283 3256 3246 3212 3299 3150 3326 3290 3253 3268 3305 3311 3226 3136 3168 3172 3279 3189 3232 3226 3126 3318 3206 3288 3304 3240 3267 3287 3281 3240 3210 3325 3230 3241 3182 3174 3102 3208 3176 3213 3212 3117 3199 3208 3149 3189 3106 3230 3158 3269 3216 3235 3188 3259 3200 3144 3115 3232 3278 3150 3067 3088 3160 3070 3217 3110 3158 3133 3075 3064 3154 3137 3136 3060 3130 3092 3052 3138 3140 3080 3150 3187 3107 2998 3167 3177 3018 3162 2979 3147 3008 3102 3118 3090 3159 3065 3066 2996 3081 3009 3040 2925 2948 3107 2995 3060 3120 3010 3006 2945 2994 2980 2963 3070 2984 3033 3060 3046 3071 2979 2945 2890 3013 3099 3027 3042 2976 2951 2994 3044 2936 2873 2960 2962 2945 2912 2970 2935 2960 2901 2878 2949 2880 2945 2862 2860 2717 2977 2861 2923 2937 2850 2836 2993 2848 2752 2835 2920 2801 2887 2832 2902 2830 2737 2750 2894 2784 2710 2776 2880 2807 2873 2856 2931 2826 2806 2832 2898 2810 2873 2701 2824 2777 2750 2859 2778 2769 2668 2636 2743 2693 2843 2829 2681 2872 2765 2691 2696 2721 2684 2731 2721 2693 2766 2634 2737 2736 2698 2715 2705 2629 2685 2654 2672 2708 2687 2647 2721 2656 2631 2560 2698 2619 2679 2656 2670 2679 2621 2571 2682 2609 2583 2568 2607 2630 2589 2583 2696 2667 2657 2618 2619 2606 2604 2629 2627 2590 2642 2594 2534 2540 2589 2597 2583 2601 2580 2661 2565 2477 2530 2441 2547 2495 2519 2488 2649 2520 2529 2533 2538 2615 2586 2478 2638 2555 2515 2498 2445 2525 2599 2528 2524 2504 2496 2446 2515 2526 2555 2569 2504 2596 2454 2447 2550 2520 2448 2573 2448 2405 2465 2454 2547 2472 2468 2436 2433 2405 2460 2510 2434 2420 2390 2492 2406 2393 2354 2433 2423 2432 2454 2501 2441 2345 2409 2372 2455 2419 2518 2365 2469 2431 2405 2365 2373 2375 2410 2370 2523 2425 2484 2359 2382 2396 2412 2323 2482 2457 2372 2434 2431 2376 2403 2424 2399 2355 2279 2360 2370 2326 2396 2370 2390 2276 2404 2358 2339 2328 2231 2228 2331 2327 2288 2267 2320 2372 2362 2295 2299 2290 2284 2316 2246 2328 2274 2238 2264 2346 2307 2327 2376 2273 2337 2293 2293 2276 2316 2246 2265 2342 2264 2230 2282 2276 2209 2251 2286 2278 2173 2296 2277 2293 2268 2171 2218 2237 2250 2146 2266 2229 2240 2223 2227 2301 2226 2182 2189 2261 2258 2118 2278 2211 2228 2222 2191 2193 2180 2224 2220 2210 2232 2201 2159 2192 2229 2239 2242 2239 2173 2269 2179 2217 2133 2189 2129 2154 2221 2150 2150 2186 2116 2223 2185 2150 2136 2068 2120 2199 2131 2131 2188 2076 2175 2185 2087 2077 2082 2128 2235 2165 2182 2132 2137 2199 2119 2123 2148 2111 2175 2175 2168 2227 2106 2111 2089 2193 2172 2118 2058 2195 2177 2082 2125 2198 2213 2111 2082 2113 2168 2119 2142 2091 2115 2098 2072 2104 2024 2192 2091 2129 2203 2168 2126 2058 2084 2092 2126 2056 2067 2159 2072 2026 2078 2100 2084 2038 2143 2139 2013 2181 2096 2127 2094 2135 2083 2086 1983 2172 2031 2071 2003 2024 2042 2059 2044 2080 2110 2012 2124 2039 2074 2141 2119 2065 2049 2139 2004 2040 2080 1986 2006 2032 2015 2035 2103 2062 2099 1972 2090 1988 2014 2041 1982 2014 1967 2064 1974 1984 1966 2035 2004 1957 1958 2027 1978 2046 1952 2007 1932 2014 1988 2054 1919 2031 1980 1913 2033 1938 2019 2054 1877 1977 1965 1968 1868 2050 1979 1907 1990 1946 2003 2027 1999 1919 1997 1963 1967 1961 1936 1978 1939 1989 1991 1946 1956 1921 1871 2014 1884 1952 1955 1926 1940 1919 1936 1898 1931 1878 1948 1901 1976 1952 2000 1961 1910 1913 1907 1915 1935 1870 1844 1971 1840 1910 1869 1904 1970 1806 1937 1910 1866 1842 1872 1835 1936 1891 1885 1955 1857 1925 1820 1927 1897 1904 1927 1816 1930 1841 1841 1911 1902 1820 1857 1825 1950 1845 1841 1918 1928 1860 1809 1859 1886 1774 1848 1881 1880 1974 1834 1848 1844 1880 1808 1858 1833 1823 1868 1827 1852 1828 1805 1809 1787 1845 1842 1766 1870 1882 1875 1750 1874 1796 1836 1883 1870 1768 1868 1812 1764 1828 1846 1850 1759 1764 1877 1851 1820 1787 1783 1771 1820 1809 1840 1765 1917 1794 1848 1826 1840 1744 1809 1840 1761 1769 1750 1890 1731 1754 1720 1801 1806 1731 1784 1675 1830 1804 1825 1855 1848 1796 1737 1766 1801 1817 1816 1755 1747 1783 1817 1672 1754 1836 1814 1809 1787 1784 1736 1730 1795 1893 1773 1765 1813 1777 1877 1742 1796 1796 1762 1770 1803 1767 1694 1732 1750 1738 1777 1782 1750 1802 1796 1786 1764 1664 1729 1758 1801 1672 1726 1740 1705 1814 1766 1840 1783 1810 1776 1766 1726 1696 1777 1781 1701 1818 1757 1660 1672 1753 1721 1710 1761 1837 1729 1774 1716 1746 1748 1667 1865 1686 1778 1745 1722 1762 1662 1798 1757 1729 1730 1802 1773 1755 1688 1762 1707 1751 1657 1748 1748 1757 1699 1747 1814 1733 1742 1737 1797 1671 1732 1752 1704 1779 1706 1766 1728 1681 1701 1730 1716 1706 1666 1783 1776 1749 1739 1760 1734 1696 1786 1749 1825 1750 1762 1685 1701 1668 1722 1791 1778 1702 1709 1754 1732 1779 1769 1745 1738 1677 1702 1740 1635 1749 1805 1719 1719 1723 1778 1749 1754 1752 1690 1757 1766 1741 1729 1749 1704 1752 1774 1759 1683 1746 1747 1742 1756 1732 1717 1722 1665 1731 1700 1792 1711 1685 1756 1797 1622 1773 1643 1698 1687 1782 1699 1626 1763 1634 1698 1655 1683 1764 1681 1717 1755 1703 1709 1721 1737 1722 1768 1788 1801 1694 1637 1720 1679 1759 1773 1689 1700 1675 1816 1741 1713 1796 1748 1668 1739 1717 1655 1684 1657 1708 1745 1761 1708 1725 1730 1694 1661 1700 1633 1728 1723 1689 1726 1750 1732 1710 1708 1774 1633 1741 1684 1742 1708 1694 1754 1713 1687 1667 1772 1760 1793 1652 1662 1746 1668 1792 1789 1691 1768 1714 1688 1728 1687 1748 1735 1754 1715 1692 1815 1748 1645 1777 1649 1660 1760 1748 1691 1734 1664 1717 1692 1711 1726 1768 1618 1709 1634 1686 1608 1696 1708 1680 1635 1736 1716 1702 1774 1647 1716 1722 1660 1722 1753 1639 1767 1666 1684 1716 1791 1674 1708 1690 1676 1717 1698 1769 1748 1735 1725 1676 1666 1673 1741 1656 1684 1698 1655 1774 1709 1742 1683 1732 1739 1675 1699 1726 1700 1755 1719 1798 1741 1670 1652 1702 1686 1693 1619 1672 1656 1754 1661 1751 1695 1763 1609 1676 1712 1669 1725 1662 1676 1720 1739 1655 1710 1731 1624 1655 1726 1801 1741 1712 1716 1711 1700 1742 1695 1697 1667 1626 1669 1680 1651 1737 1726 1715 1634 1594 1715 1656 1658 1715 1622 1787 1734 1638 1694 1617 1756 1646 1756 1681 1683 1684 1671 1667 1709 1673 1725 1617 1793 1613 1628 1618 1656 1716 1707 1676 1637 1687 1641 1682 1667 1704 1614 1705 1686 1641 1697 1680 1628 1685 1677 1695 1641 1657 1676 1639 1719 1649 1687 1625 1659 1689 1694 1643 1643 1696 1598 1691 1658 1725 1666 1719 1688 1705 1655 1688 1713 1653 1608 1672 1663 1670 1582 1640 1628 1704 1657 1621 1610 1724 1695 1625 1621 1691 1659 1720 1661 1656 1672 1613 1628 1685 1652 1607 1697 1683 1688 1616 1720 1632 1680 1697 1716 1729 1652 1655 1654 1602 1694 1729 1694 1682 1719 1696 1544 1652 1689 1682 1646 1618 1719 1676 1661 1678 1645 1714 1769 1746 1679 1634 1680 1667 1672 1685 1671 1763 1628 1704 1709 1610 1668 1662 1656 1692 1657 1627 1631 1683 1729 1697 1674 1624 1704 1634 1631 1723 1619 1693 1627 1682 1648 1597 1590 1672 1717 1601 1647 1628 1673 1716 1681 1655 1683 1638 1560 1653 1577 1594 1658 1630 1632 1636 1639 1722 1616 1692 1609 1650 1617 1602 1632 1622 1565 1583 1575 1559 1619 1599 1666 1595 1586 1560 1534 1652 1629 1659 1558 1612 1603 1582 1531 1603 1606 1544 1548 1505 1565 1554 1551 1593 1555 1665 1644 1574 1580 1598 1567 1566 1662 1594 1638 1562 1618 1579 1563 1574 1564 1593 1543 1565 1569 1611 1625 1541 1653 1557 1570 1571 1517 1555 1607 1553 1611 1627 1522 1583 1565 1614 1583 1508 1538 1518 1495 1593 1566 1576 1594 1612 1549 1563 1561 1592 1614 1548 1503 1524 1559 1537 1556 1563 1599 1589 1564 1636 1521 1553 1473 1506 1546 1524 1553 1585 1538 1520 1627 1554 1525 1535 1530 1617 1566 1617 1571 1566 1585 1615 1552 1511 1515 1603 1580 1627 1554 1541 1547 1545 1500 1576 1494 1600 1501 1572 1504 1481 1529 1585 1520 1533 1437 1525 1538 1499 1498 1530 1515 1535 1541 1473 1516 1491 1493 1545 1523 1529 1550 1482 1536 1624 1488 1540 1510 1498 1513 1547 1490 1441 1476 1582 1417 1490 1531 1480 1469 1501 1478 1522 1522 1482 1500 1480 1439 1518 1504 1500 1476 1470 1512 1527 1534 1506 1534 1563 1458 1467 1458 1520 1497 1480 1468 1470 1511 1524 1447 1449 1525 1435 1553 1484 1489 1520 1518 1453 1500 1496 1482 1480 1516 1467 1424 1459 1474 1513 1442 1484 1420 1430 1479 1441 1417 1404 1423 1496 1493 1523 1458 1488 1416 1423 1475 1514 1454 1423 1483 1435 1471 1404 1435 1470 1472 1515 1485 1456 1446 1486 1442 1429 1438 1522 1444 1477 1420 1438 1468 1493 1457 1467 1488 1558 1405 1472 1439 1473 1431 1491 1529 1451 1427 1408 1471 1429 1399 1432 1468 1403 1476 1486 1423 1413 1401 1493 1428 1498 1422 1413 1457 1443 1434 1474 1406 1467 1468 1453 1442 1456 1417 1453 1434 1522 1401 1413 1426 1432 1395 1427 1446 1378 1396 1438 1405 1385 1344 1432 1428 1355 1473 1402 1393 1386 1431 1384 1382 1428 1353 1371 1428 1430 1393 1373 1365 1379 1362 1360 1440 1465 1382 1482 1404 1425 1368 1442 1354 1329 1372 1368 1419 1454 1389 1429 1388 1399 1399 1418 1398 1444 1440 1415 1425 1400 1438 1423 1437 1396 1426 1464 1380 1325 1397 1423 1405 1411 1359 1399 1368 1413 1418 1373 1413 1457 1436 1365 1403 1374 1391 1385 1374 1340 1383 1398 1439 1478 1464 1349 1387 1430 1393 1404 1402 1338 1362 1438 1408 1372 1403 1346 1325 1402 1362 1354 1436 1348 1396 1394 1392 1398 1434 1375 1351 1376 1328 1439 1347 1381 1382 1381 1349 1398 1346 1367 1395 1361 1346 1378 1394 1298 1356 1352 1333 1363 1351 1333 1403 1337 1404 1301 1341 1376 1437 1367 1384 1380 1297 1360 1420 1362 1339 1321 1340 1438 1349 1400 1399 1384 1408 1393 1321 1381 1383 1336 1406 1411 1346 1310 1342 1371 1357 1346 1339 1330 1352 1357 1295 1307 1362 1312 1398 1364 1325 1344 1413 1328 1358 1317 1333 1317 1360 1339 1352 1336 1387 1349 1356 1327 1309 1259 1357 1373 1359 1350 1367 1352 1381 1366 1304 1296 1377 1316 1347 1317 1328 1321 1400 1331 1310 1294 1299 1354 1361 1397 1364 1358 1368 1284 1267 1301 1308 1330 1300 1323 1347 1292 1326 1317 1249 1299 1236 1313 1337 1390 1306 1321 1370 1318 1317 1298 1238 1271 1356 1302 1319 1336 1317 1285 1332 1300 1362 1345 1261 1376 1365 1287 1337 1317 1326 1354 1278 1301 1285 1362 1313 1329 1418 1348 1299 1398 1365 1339 1345 1329 1358 1315 1275 1311 1373 1291 1245 1301 1260 1323 1237 1334 1296 1260 1334 1295 1314 1280 1306 1256 1216 1269 1310 1292 1231 1313 1281 1389 1230 1321 1345 1315 1262 1324 1281 1301 1278 1316 1336 1295 1307 1300 1263 1260 1336 1280 1303 1282 1289 1270 1318 1317 1293 1284 1323 1319 1255 1296 1343 1284 1272 1230 1229 1216 1346 1356 1231 1262 1332 1305 1291 1211 1283 1260 1247 1252 1282 1232 1286 1299 1280 1258 1260 1250 1314 1339 1229 1218 1262 1236 1281 1240 1294 1297 1320 1332 1284 1223 1288 1263 1270 1271 1288 1344 1275 1288 1320 1258 1355 1303 1262 1332 1245 1251 1277 1269 1284 1246 1240 1271 1211 1255 1317 1366 1285 1315 1310 1340 1306 1292 1235 1196 1297 1249 1297 1258 1280 1239 1247 1276 1257 1315 1233 1278 1269 1256 1271 1280 1265 1256 1295 1277 1328 1315 1301 1187 1255 1277 1240 1288 1218 1221 1295 1280 1276 1286 1277 1288 1296 1313 1228 1282 1213 1221 1245 1301 1215 1264 1221 1323 1240 1221 1273 1231 1294 1193 1232 1220 1274 1223 1209 1278 1271 1266 1297 1214 1250 1325 1255 1135 1285 1238 1272 1232 1241 1286 1262 1299 1203 1166 1304 1265 1187 1216 1230 1209 1271 1305 1270 1227 1267 1300 1181 1236 1212 1331 1284 1305 1268 1272 1219 1259 1214 1264 1223 1207 1256 1236 1221 1216 1260 1217 1187 1167 1296 1238 1263 1245 1199 1260 1268 1193 1161 1237 1203 1276 1250 1280 1231 1223 1271 1221 1220 1266 1182 1247 1257 1305 1251 1209 1257 1211 1209 1249 1236 1270 1205 1230 1221 1237 1213 1183 1215 1252 1180 1212 1194 1216 1230 1230 1197 1204 1197 1153 1187 1275 1221 1264 1195 1250 1194 1200 1205 1228 1183 1221 1224 1208 1157 1208 1214 1238 1222 1237 1198 1228 1131 1178 1216 1238 1169 1169 1236 1265 1210 1229 1225 1255 1196 1228 1212 1216 1211 1234 1190 1177 1155 1240 1151 1229 1219 1232 1180 1222 1229 1183 1191 1209 1214 1239 1215 1154 1248 1194 1251 1200 1155 1278 1161 1221 1200 1119 1277 1277 1214 1171 1217 1179 1206 1159 1136 1191 1148 1183 1184 1194 1140 1230 1143 1169 1184 1167 1171 1154 1131 1231 1179 1190 1178 1178 1245 1102 1230 1223 1144 1200 1229 1105 1190 1087 1184 1178 1151 1153 1107 1185 1205 1144 1171 1212 1129 1230 1189 1172 1204 1160 1183 1221 1108 1271 1176 1160 1219 1155 1083 1170 1210 1211 1142 1168 1094 1085 1162 1166 1162 1119 1165 1148 1185 1109 1169 1150 1123 1153 1140 1158 1182 1153 1162 1172 1184 1159 1094 1109 1147 1164 1122 1129 1139 1165 1159 1115 1137 1152 1125 1198 1212 1148 1146 1156 1092 1132 1145 1134 1148 1230 1119 1130 1149 1186 1135 1114 1092 1150 1125 1131 1153 1121 1107 1155 1091 1109 1144 1128 1122 1133 1108 1134 1066 1101 1167 1118 1087 1155 1116 1092 1137 1065 1148 1176 1100 1020 1132 1136 1071 1100 1102 1136 1089 1094 1157 1087 1118 1097 1115 1106 1069 1108 1127 1103 1104 1148 1083 1114 1107 1095 1058 1092 1130 1066 1107 1101 1188 1081 1101 1139 1098 1060 1051 1070 1063 1129 1108 1091 1073 1100 1066 1135 1030 1112 1132 1085 1070 1085 1059 1152 1112 1082 1079 1039 1067 1101 1105 1073 1144 1079 1101 1053 1074 1084 1054 1091 1072 1085 1092 1115 1052 1111 1083 1050 1111 1057 1078 1034 1133 1068 1050 1142 1042 1053 1078 1019 1131 1107 1045 1069 1034 1039 1057 1034 1022 1095 1070 1078 1092 1064 1067 1021 998 1052 1102 1034 1051 1034 1132 1082 1096 1035 1018 1047 1026 1047 1069 1026 1089 1096 1114 1056 1057 1059 1052 1034 1063 1052 1036 999 1049 1028 1066 992 1087 1077 1040 1074 1029 1039 1020 1010 1086 959 1051 1051 1060 1140 975 1028 1042 1034 1043 1082 1053 1072 1021 1022 1046 1040 1020 1040 1013 1058 1036 1071 1036 1063 1054 1041 1036 1045 1060 1026 1085 1031 1033 1026 1064 1041 1017 1027 1031 1005 1030 1001 1069 985 979 1014 1013 1094 1026 1004 1000 990 992 988 1082 1022 1054 993 1032 991 976 1033 1027 984 1003 1014 1024 1001 972 1038 955 1043 1020 1054 951 1021 1010 1029 983 953 1028 1060 1001 1024 975 1039 1019 1023 1003 1035 1030 1003 996 1019 1028 993 996 1039 1017 971 1021 1060 972 980 1038 1027 1006 967 1003 1041 925 991 1001 931 976 1038 976 1048 1015 1010 987 1048 1007 960 982 1019 1005 1024 975 1054 1053 959 972 1022 1005 940 986 1002 1050 964 1010 1006 972 967 972 975 963 1008 1018 1002 1002 1011 1011 992 981 1007 995 1026 1024 966 958 984 1022 1026 990 1027 1012 1042 1005 961 1001 974 958 933 985 1022 960 1021 1006 1046 961 982 1000 1010 952 1027 908 988 1028 984 961 1003 989 971 987 969 965 1028 1017 1003 975 1043 935 947 1018 929 1002 903 978 987 956 1009 995 954 1004 977 938 1008 963 979 977 1021 977 1031 958 962 960 951 994 981 979 955 939 977 970 996 1017 947 1014 968 940 928 991 948 949 997 1014 970 895 927 917 987 978 992 929 995 914 919 955 989 951 962 926 947 981 950 976 1000 983 973 987 954 932 961 983 943 975 923 979 890 988 965 954 984 977 965 952 951 968 916 997 1008 940 960 951 881 934 904 976 958 919 979 896 927 973 995 957 904 965 945 901 910 929 934 865 945 913 911 948 968 950 911 914 947 917 921 949 905 992 956 961 961 988 888 954 932 996 978 991 909 947 979 957 955 923 928 896 902 979 924 943 924 922 910 960 931 942 898 967 912 938 916 999 950 946 910 939 974 937 915 931 937 890 901 938 973 952 951 938 968 968 994 907 903 916 886 917 907 917 959 895 975 910 924 892 885 946 907 898 896 935 852 932 959 938 950 962 952 949 944 976 885 834 949 935 956 938 903 913 932 913 929 919 925 864 888 887 915 896 939 915 842 908 912 970 964 928 937 915 904 922 933 897 921 841 895 891 954 904 948 908 873 928 911 937 878 922 889 933 939 939 900 922 897 878 903 904 920 881 951 936 952 897 919 879 891 878 926 897 936 908 894 906 927 884 895 934 875 890 865 872 922 878 950 908 871 878 909 948 882 945 885 924 902 902 908 883 918 833 898 893 854 877 896 862 899 927 862 894 926 878 890 931 868 928 865 864 905 858 870 900 863 913 893 908 892 851 854 897 865 885 935 865 852 968 931 900 904 845 873 860 934 920 857 826 900 859 919 863 875 878 863 906 905 902 873 929 844 932 861 893 889 850 889 905 869 865 911 849 878 876 870 895 860 890 886 958 885 844 873 863 859 904 927 872 877 847 899 894 907 881 907 868 849 890 905 805 888 864 865 888 883 877 890 889 921 885 801 867 906 922 863 843 883 885 844 885 899 861 902 859 911 900 841 892 835 880 856 872 851 839 838 863 851 893 853 842 842 856 845 855 861 880 884 850 864 864 882 830 861 895 867 850 847 857 843 806 872 868 802 846 865 822 834 808 865 836 845 814 897 866 845 845 912 869 858 832 888 903 826 859 818 900 920 864 890 804 883 787 835 886 832 820 870 834 884 869 867 862 860 850 814 840 837 872 878 829 814 828 798 813 827 764 879 858 944 836 882 880 828 872 861 834 807 831 829 845 836 831 826 845 801 844 844 780 882 782 836 821 870 889 844 838 838 831 910 877 838 840 862 826 835 853 826 898 836 874 849 863 870 832 853 835 820 863 854 901 805 854 797 826 857 829 819 875 817 875 833 757 866 790 838 831 841 799 828 804 853 818 840 853 774 796 876 860 844 855 807 873 848 826 789 808 823 812 803 802 828 812 841 845 877 812 828 808 825 812 850 834 832 877 801 862 835 798 805 796 900 825 858 846 870 829 791 849 780 779 808 793 818 791 788 768 766 826 820 876 842 821 822 811 831 804 825 816 794 809 814 826 817 834 810 793 784 755 799 808 844 814 793 821 770 822 797 841 817 851 831 807 791 833 835 811 828 840 823 727 846 802 763 784 790 832 777 832 810 810 807 844 825 893 852 794 835 829 793 800 812 836 852 808 782 829 812 839 782 855 759 824 830 796 818 798 790 799 846 814 806 799 824 830 799 792 790 785 803 822 816 809 781 799 826 796 781 798 768 770 851 720 756 770 778 821 835 799 812 790 848 774 828 834 750 819 779 811 747 782 818 831 766 811 753 787 842 800 769 735 760 791 831 838 788 755 762 751 808 769 802 796 792 761 764 823 790 784 826 777 738 809 799 813 781 855 791 763 759 774 773 795 820 828 758 765 821 811 863 787 779 697 817 767 724 772 776 789 792 799 834 732 806 775 759 780 764 826 800 763 834 789 718 774 772 765 808 796 791 756 715 780 800 773 813 755 750 754 732 801 779 760 827 730 744 791 793 805 798 750 750 783 762 739 818 751 773 735 784 711 731 736 767 757 797 752 801 759 832 766 818 680 770 810 747 761 776 778 774 757 745 749 767 726 741 759 792 779 778 765 743 813 786 776 769 744 766 768 719 720 807 757 776 723 782 805 753 732 821 750 747 743 740 804 744 798 796 756 739 783 783 731 775 725 711 763 719 749 755 720 761 735 764 738 761 766 695 776 770 670 783 705 756 751 788 763 786 740 759 750 699 716 736 741 784 757 759 759 719 774 686 740 707 720 736 742 745 737 787 728 759 745 752 743 692 754 718 696 750 784 689 777 755 811 739 748 739 727 770 751 719 743 791 723 724 759 753 773 764 732 696 786 749 740 761 779 735 735 720 752 748 755 770 715 724 747 740 716 713 709 746 738 738 784 722 769 766 742 799 722 795 735 752 732 743 774 739 741 810 703 759 757 723 721 793 738 773 757 697 754 710 730 720 708 738 752 742 735 736 740 723 702 705 717 736 735 737 742 695 739 706 739 749 743 723 765 753 733 759 744 721 751 732 731 801 762 772 700 753 749 743 747 759 721 740 686 703 694 671 759 734 681 709 744 747 749 730 718 734 726 725 705 710 750 724 740 761 736 715 753 669 773 710 703 684 767 754 717 737 692 720 693 708 702 724 679 749 744 764 745 786 750 718 684 696 720 716 720 715 766 711 679 750 752 735 714 650 729 766 755 771 740 719 717 715 716 746 763 724 727 744 700 690 743 713 711 732 686 711 751 758 718 728 716 741 731 725 720 706 734 678 700 747 731 701 741 682 702 705 768 651 744 712 712 715 742 767 698 740 737 737 738 687 741 711 757 722 735 696 732 728 745 692 753 715 743 739 745 743 735 729 717 700 735 643 663 778 732 712 739 687 701 721 728 737 677 644 711 719 754 727 685 778 699 737 712 713 725 710 715 780 738 684 723 738 743 685 725 760 705 722 730 710 732 694 747 731 675 721 700 686 684 710 693 712 765 745 702 658 714 691 693 733 726 739 711 733 708 735 714 678 722 701 699 715 746 697 686 750 689 721 703 756 757 738 705 732 688 741 684 692 725 728 678 710 712 708 639 706 658 725 722 669 703 686 746 732 673 680 703 730 701 747 719 735 706 661 638 724 687 735 745 670 717 741 696 737 684 750 706 696 707 723 720 680 681 673 707 687 729 727 675 734 701 678 721 664 718 733 707 649 671 724 722 687 781 722 716 702 738 749 700 683 702 706 708 683 724 728 728 690 726 720 684 670 711 688 741 666 726 728 694 683 733 722 675 736 695 701 742 772 711 700 727 773 723 691 699 711 705 638 717 688 700 689 747 705 761 716 743 679 697 695 717 759 669 744 741 712 675 717 728 716 713 771 692 693 710 739 775 741 695 742 753 688 688 690 705 695 702 724 739 733 660 754 765 742 739 698 701 724 785 739 737 712 752 719 685 684 682 708 674 711 686 713 710 753 701 718 711 711 722 707 653 739 738 753 744 734 717 729 703 680 749 716 734 713 772 702 674 693 739 717 693 708 692 671 705 707 715 715 707 736 743 754 732 712 746 728 738 694 745 688 625 697 704 664 713 739 725 683 675 728 716 747 737 742 686 693 749 688 711 705 674 720 656 697 716 738 755 687 716 712 727 727 703 712 722 718 721 706 704 713 706 731 649 694 752 719 735 704 711 732 764 723 706 703 723 685 743 688 721 740 667 698 713 752 717 734 675 703 732 717 714 703 717 724 720 704 732 737 720 748 706 703 702 736 738 674 707 710 714 781 725 716 689 729 728 749 697 718 740 746 721 721 711 690 675 719 689 699 713 711 692 724 698 668 655 754 729 728 721 686 707 724 703 722 717 708 743 738 754 737 659 717 730 723 720 659 727 739 733 692 729 740 716 721 729 714 732 683 740 692 699 746 676 696 759 722 729 734 629 742 724 673 720 709 667 709 717 643 676 725 691 735 743 668 677 727 693 681 719 695 733 670 716 750 737 770 769 727 777 711 745 715 736 730 775 723 675 756 709 741 713 685 751 705 715 753 730 720 680 724 741 730 701 699 717 721 747 663 736 698 677 777 719 719 719 751 691 669 728 721 711 767 703 741 747 693 700 720 738 714 710 720 730 720 705 721 698 756 697 751 734 742 716 698 735 716 712 722 757 713 744 697 729 692 687 737 691 720 796 718 705 715 714 756 758 749 740 762 724 706 692 721 682 706 710 679 748 745 707 671 719 698 713 710 764 722 734 758 732 763 732 701 737 749 663 686 682 726 708 732 662 751 702 688 716 726 717 737 702 672 701 721 707 739 713 737 711 679 713 716 753 751 726 731 702 702 733 742 752 741 741 726 724 768 671 758 767 761 761 713 778 730 702 707 773 674 709 686 747 681 699 698 723 698 682 763 686 723 702 710 786 704 674 770 702 694 714 695 740 707 714 693 743 720 749 703 704 729 709 720 677 715 698 755 716 705 756 743 702 739 712 714 717 693 704 684 685 700 723 724 742 696 723 725 763 715 679 756 727 738 696 688 736 685 734 722 690 750 705 676 711 729 772 706 716 694 725 688 701 675 720 717 687 735 703 701 750 752 700 698 659 742 726 693 692 752 687 703 770 770 706 744 747 671 708 708 686 724 731 672 696 695 679 710 704 744 729 700 694 709 697 692 688 712 741 760 707 691 707 701 717 701 690 668 705 734 659 663 686 749 716 716 727 753 720 683 727 709 689 672 737 727 741 693 730 721 706 764 705 699 672 728 744 649 707 704 740 698 735 697 714 689 706 719 704 784 669 736 726 723 699 657 727 745 711 726 755 712 704 700 695 716 738 714 727 703 720 722 721 713 709 691 706 679 696 681 718 718 698 697 677 683 719 737 705 729 733 732 726 736 700 744 711 740 740 730 673 709 731 714 657 664 686 701 704 664 659 725 717 699 720 653 703 657 694 681 730 708 709 679 677 705 719 760 725 699 685 706 723 703 715 683 718 782 720 650 658 739 664 688 748 750 707 730 719 666 715 692 621 698 733 688 639 690 753 678 678 750 678 734 766 689 706 699 709 707 711 655 712 669 668 695 716 726 643 706 707 656 743 706 693 688 642 694 705 718 680 698 718 690 705 704 708 656 724 726 729 697 680 732 667 679 736 711 714 686 719 674 715 689 711 695 723 682 709 642 707 682 703 696 741 706 724 737 660 736 670 692 685 747 714 718 689 658 719 731 682 685 679 695 662 697 686 730 702 762 702 738 742 705 720 677 743 749 693 720 728 716 724 735 711 737 721 730 705 696 714 731 748 676 714 682 709 721 727 715 721 742 679 720 732 663 689 672 685 662 683 687 666 731 686 699 674 689 675 727 693 715 683 717 694 732 710 691 696 695 694 731 703 711 666 703 749 681 729 665 678 673 685 692 723 693 715 683 707 632 712 673 691 691 707 733 694 708 711 722 716 734 691 707 693 734 743 702 690 702 702 720 747 713 688 729 712 633 718 750 687 718 682 687 717 753 728 723 675 693 648 731 701 706 705 724 678 710 700 729 701 700 668 735 678 677 717 696 765 720 665 756 711 679 671 714 689 759 691 718 726 731 731 707 724 740 741 660 668 733 680 658 699 754 689 714 691 735 647 692 713 740 701 739 666 719 669 694 658 708 716 735 687 706 672 720 690 725 706 711 705 699 676 728 755 737 705 730 726 670 744 740 782 697 744 720 713 658 644 696 692 695 666 697 648 741 670 735 722 676 675 720 698 733 704 734 694 700 701 687 741 707 723 673 680 756 750 737 704 680 731 729 702 737 710 715 739 725 694 697 718 741 664 738 706 707 699 718 679 706 697 721 668 695 748 671 704 713 759 750 712 740 675 717 694 653 716 680 717 756 701 690 716 717 689 707 712 737 715 720 731 705 752 750 680 754 739 737 735 687 714 716 664 703 710 715 697 767 685 690 711 746 686 749 695 725 722 672 685 725 696 703 712 739 761 746 706 752 702 743 770 626 691 680 730 675 728 697 719 711 739 748 705 728 701 700 683 700 742 738 697 756 740 685 717 755 730 735 715 697 732 710 701 730 712 779 724 725 756 778 728 717 684 737 744 708 706 684 736 724 761 713 713 752 724 775 686 709 712 725 744 739 774 706 725 735 754 748 734 711 700 681 777 769 734 729 716 720 746 767 730 733 758 745 707 716 731 709 717 747 792 766 747 718 731 752 720 718 716 757 729 746 724 753 725 804 775 749 720 768 802 733 721 779 709 710 749 780 741 753 751 732 731 740 763 806 712 755 732 732 742 735 736 760 760 738 751 704 743 730 691 705 763 690 776 744 770 749 704 726 721 752 687 731 728 721 729 739 693 765 783 742 720 728 754 722 729 735 725 711 766 759 735 769 722 726 758 780 717 785 765 753 783 773 731 737 811 707 703 722 756 721 732 739 789 661 703 761 729 776 731 748 752 787 753 767 750 793 776 794 703 710 735 742 799 720 748 771 749 752 754 766 754 785 716 731 760 765 766 732 775 770 755 760 738 739 745 804 775 748 741 741 699 748 749 742 766 755 737 740 781 727 766 753 706 759 752 801 763 767 731 783 721 768 748 780 773 765 724 733 754 781 776 756 773 779 745 730 772 764 733 808 761 785 717 786 805 819 746 749 725 718 770 733 771 787 743 814 793 755 745 754 788 822 770 771 770 756 780 705 719 768 831 724 752 759 770 745 713 766 762 835 736 789 799 791 764 783 770 768 794 758 766 786 783 786 754 798 777 796 884 740 778 757 795 732 786 780 796 783 728 761 772 799 771 773 763 762 830 755 763 790 789 765 795 781 739 740 784 801 767 747 799 840 761 758 795 777 752 803 770 783 797 813 818 775 785 763 812 789 831 754 772 780 745 793 796 788 766 735 750 761 780 796 821 834 758 794 774 745 767 833 768 733 800 755 779 765 776 809 775 742 773 788 777 755 819 791 783 743 795 804 815 820 774 747 787 853 793 770 753 798 768 776 783 754 732 804 804 745 778 800 752 816 777 780 787 794 740 734 773 830 836 776 758 756 834 820 802 767 741 779 806 783 782 797 712 780 758 863 801 817 776 810 793 768 781 829 764 800 817 767 766 807 821 809 786 771 804 809 803 824 796 832 808 794 754 790 811 753 828 767 841 810 824 856 813 775 793 787 794 787 844 829 780 799 743 826 776 785 778 746 821 791 823 789 799 776 797 822 787 818 852 874 846 851 776 831 788 864 806 802 812 759 840 801 815 784 836 782 822 803 818 861 810 794 796 815 793 779 815 799 782 841 881 793 855 819 777 827 852 795 829 823 774 766 822 851 798 817 793 806 811 788 778 812 823 825 821 857 781 812 805 773 808 810 844 800 855 797 815 799 798 839 849 784 831 836 813 821 820 814 834 808 788 813 882 834 839 874 822 841 843 807 838 803 836 774 890 843 760 770 808 832 882 890 885 771 819 823 801 859 844 798 838 862 846 840 868 852 842 841 801 807 847 887 825 847 855 897 863 911 778 745 861 795 851 850 845 827 862 876 862 867 761 899 820 898 885 843 824 872 829 851 876 846 830 873 841 860 849 861 887 798 855 837 868 876 817 816 861 841 796 882 911 848 825 862 870 845 801 866 889 854 840 845 828 853 840 901 861 893 842 897 815 879 850 886 841 819 855 845 885 851 864 870 841 900 845 843 861 839 858 877 853 874 804 818 884 830 924 896 862 863 899 897 888 837 882 873 855 865 826 871 903 870 880 918 891 877 913 953 909 924 852 877 867 912 862 804 805 867 846 919 901 896 876 942 951 863 848 927 858 908 889 844 883 916 902 906 908 845 883 930 925 852 865 972 878 910 814 832 829 905 917 920 924 890 886 905 896 934 855 902 920 913 886 900 918 881 916 910 902 841 881 953 889 908 877 946 847 925 906 819 878 915 863 922 864 867 852 883 885 886 880 874 908 875 935 879 964 879 865 893 867 870 822 874 877 896 894 862 881 888 913 880 903 881 890 876 830 886 870 903 859 877 919 948 909 910 853 909 866 885 876 892 883 911 902 895 887 873 887 877 870 837 864 933 891 874 831 938 902 927 893 904 942 871 886 968 866 908 933 868 881 871 882 918 895 853 909 878 859 876 845 898 856 854 863 877 870 909 928 852 903 863 923 876 908 916 888 915 916 927 896 880 840 874 861 868 890 871 874 875 833 851 921 871 896 896 877 807 935 898 861 892 866 906 888 886 917 852 881 925 899 842 842 922 872 928 861 870 878 866 855 888 862 851 891 897 874 856 879 883 877 879 882 903 805 850 890 886 908 922 880 920 800 875 886 949 796 894 877 896 832 830 880 878 837 861 885 842 850 881 885 785 857 883 877 845 895 871 837 875 847 838 911 885 870 896 834 814 864 947 881 864 891 852 855 859 871 897 903 864 865 846 888 865 845 845 884 875 873 872 812 889 869 895 865 796 906 839 873 906 866 869 841 889 851 810 867 876 823 877 838 855 890 819 810 850 855 833 866 852 867 869 856 849 911 878 814 852 832 866 852 870 842 795 877 813 842 841 880 829 842 831 847 799 802 812 860 893 850 884 855 802 846 857 858 805 859 801 831 847 864 807 784 829 833 862 854 907 861 826 856 819 881 801 814 871 817 866 816 833 843 894 873 800 839 778 869 852 774 853 868 873 826 824 811 834 779 851 783 825 773 807 877 864 837 791 863 848 830 882 864 843 849 812 875 840 795 827 792 823 783 847 820 797 809 851 807 823 826 838 823 814 840 868 834 841 821 790 802 782 841 834 821 839 845 810 819 864 831 876 822 812 821 824 785 806 834 904 787 799 828 843 812 797 835 792 844 801 787 829 846 795 824 820 809 799 799 847 813 828 801 870 843 802 754 764 878 801 842 824 853 872 842 877 781 778 823 830 843 844 784 822 783 809 831 822 810 787 799 836 787 865 809 808 819 798 798 789 811 837 796 737 849 885 786 880 838 805 813 814 831 842 846 835 815 833 788 781 816 885 791 831 789 799 812 860 776 853 798 799 759 817 803 890 813 825 792 802 824 781 869 847 802 849 843 812 795 796 820 821 862 806 816 753 797 829 820 768 827 807 811 739 785 827 773 749 881 816 794 818 829 766 819 782 794 813 809 815 819 802 750 794 795 800 841 789 830 803 800 815 768 818 828 788 777 796 806 813 856 802 801 756 766 837 766 806 762 770 751 814 774 752 786 805 805 825 826 822 754 871 729 810 766 755 779 822 807 847 827 805 826 857 802 815 758 824 766 778 792 773 807 775 824 771 792 744 828 792 808 805 823 776 754 782 852 796 809 772 799 790 756 764 767 755 792 809 790 805 805 771 790 820 792 781 823 789 754 786 778 763 814 764 772 767 770 824 810 831 795 739 837 806 776 789 780 810 767 826 773 805 753 762 820 773 820 765 841 765 747 756 794 811 788 783 789 803 819 759 811 783 758 821 841 789 803 768 792 799 780 771 815 777 803 763 787 791 837 765 810 809 779 736 789 793 827 791 774 704 763 757 763 762 714 753 730 794 756 800 775 764 788 741 744 751 767 759 754 780 757 781 726 725 757 785 762 762 762 765 779 751 816 775 771 744 826 746 725 783 740 747 788 812 775 752 785 778 792 803 780 762 792 763 786 749 735 787 761 781 773 751 752 744 748 778 779 743 757 744 801 756 743 759 782 747 782 763 772 778 779 782 742 723 762 748 800 708 748 743 761 746 702 715 759 814 795 739 778 737 729 743 746 865 713 740 807 785 786 716 784 751 773 755 753 752 783 733 720 815 783 755 743 771 773 739 764 803 781 751 737 764 740 711 738 730 749 797 782 781 773 735 734 756 759 756 773 803 764 709 736 722 738 781 764 812 736 722 823 753 743 788 724 772 739 778 770 751 735 734 686 765 733 725 763 748 748 742 751 706 756 754 721 769 708 747 759 755 766 782 760 777 751 735 698 723 751 717 737 725 747 775 780 763 728 746 682 736 734 692 722 722 695 728 767 734 816 767 743 756 766 743 723 758 725 713 700 706 736 761 731 716 699 739 674 716 702 695 704 717 735 796 736 821 763 729 707 724 770 741 771 690 695 752 751 773 738 756 697 732 708 723 707 754 765 699 715 759 672 751 741 763 714 735 768 751 765 743 755 705 761 726 735 721 736 717 702 726 736 740 669 731 665 721 688 710 724 723 735 741 735 750 747 752 699 718 763 718 752 724 710 754 738 680 779 739 740 721 694 744 737 681 718 745 736 722 750 706 735 713 721 705 684 742 708 730 664 753 751 691 754 749 678 667 794 766 760 706 692 745 777 761 702 699 742 711 720 738 700 725 741 717 764 720 689 722 758 720 728 666 695 683 697 748 643 706 763 729 723 681 745 702 689 694 656 709 690 749 702 726 743 688 685 712 699 702 721 692 714 731 724 754 708 735 714 713 723 679 740 681 716 719 681 709 697 709 676 709 731 740 728 703 689 696 711 649 762 709 705 751 746 689 740 687 726 710 729 736 738 705 705 705 723 692 708 711 704 686 659 657 684 695 732 655 669 672 756 675 668 703 713 734 721 713 712 731 703 677 647 689 690 700 736 694 688 732 756 682 687 701 711 745 696 717 663 690 746 720 657 673 693 728 684 788 673 718 737 662 694 697 663 703 718 661 680 693 679 702 728 707 643 705 665 661 670 695 720 676 707 697 691 720 668 688 640 679 693 685 677 658 692 674 696 649 648 713 684 700 719 639 678 712 688 671 730 733 697 702 654 737 657 661 682 691 639 689 633 719 667 715 697 694 680 678 663 720 674 664 647 721 644 666 700 665 660 685 687 724 671 674 702 693 655 706 675 687 673 662 667 647 711 689 693 628 690 657 654 681 693 671 705 735 669 724 692 689 673 660 686 656 765 667 686 675 657 691 685 692 670 651 669 678 723 696 662 648 672 732 668 676 688 659 663 710 640 603 665 713 697 703 674 646 685 638 654 682 699 714 681 710 632 646 648 671 636 679 710 689 674 699 651 692 668 705 689 685 652 731 647 627 693 710 685 727 654 663 699 705 673 674 662 673 664 672 701 679 675 624 634 689 627 726 687 694 662 688 691 670 724 671 632 654 651 664 643 672 661 723 659 658 673 661 635 664 627 645 654 674 622 694 663 701 625 667 678 649 672 678 661 658 689 654 683 672 654 675 648 723 715 623 617 657 690 698 643 671 659 676 644 645 665 640 647 608 677 662 665 673 625 663 622 688 682 673 654 700 685 639 658 610 671 614 607 695 641 630 624 677 705 601 667 665 652 672 677 652 676 694 627 644 692 668 659 671 597 653 696 638 641 656 641 668 694 686 676 690 668 614 678 647 649 638 666 653 645 617 635 631 606 639 670 651 652 668 616 630 635 708 652 647 651 701 677 613 655 599 656 660 686 605 636 633 670 661 630 695 638 640 648 636 635 629 627 639 631 642 609 643 600 645 597 647 636 650 652 632 655 668 677 650 644 628 608 634 603 637 628 631 650 675 636 624 615 630 625 618 603 643 640 656 706 596 670 616 632 625 605 644 617 604 622 660 676 658 661 643 592 605 652 694 634 585 630 648 695 647 630 650 630 663 610 616 713 615 611 565 634 566 647 664 632 647 638 667 666 598 583 687 602 660 643 618 635 638 615 627 658 628 657 625 628 639 629 621 654 666 619 629 640 624 591 640 647 665 633 594 612 582 632 640 650 626 640 609 654 621 630 663 658 628 651 653 639 637 629 647 672 663 653 633 561 614 632 620 626 637 689 616 667 630 607 615 622 587 649 621 574 613 604 658 604 634 659 613 604 619 669 651 619 602 647 614 637 638 641 623 574 619 601 626 647 612 612 583 635 580 624 599 614 587 606 589 649 591 625 630 627 628 634 621 632 579 588 619 621 647 653 626 593 617 623 655 581 568 608 624 607 592 576 621 649 602 610 651 619 574 582 602 647 581 642 644 607 596 583 622 634 587 594 633 629 595 638 624 603 619 636 607 605 630 608 613 589 646 619 671 621 597 596 566 662 610 607 622 641 599 586 667 574 632 611 633 598 614 643 613 595 587 597 627 595 613 590 580 601 587 627 569 601 613 553 579 604 638 613 594 609 589 584 625 600 591 586 553 573 616 558 603 621 552 621 588 585 640 603 667 627 622 578 602 599 593 608 589 626 578 627 602 599 569 678 570 613 600 582 613 625 568 587 607 631 646 601 560 611 614 607 639 660 610 591 623 609 625 635 629 625 635 613 601 613 567 565 580 597 641 567 595 570 594 608 580 613 584 634 564 613 591 601 558 605 598 598 623 592 636 572 600 602 566 582 605 596 615 629 623 594 589 582 601 616 629 608 563 592 574 621 560 590 546 589 602 661 585 576 609 581 581 585 560 612 645 570 602 578 597 559 631 598 621 563 577 566 587 526 572 571 555 586 595 590 592 596 595 607 581 596 555 568 567 610 580 566 589 563 599 593 574 556 603 602 581 559 647 617 586 605 578 617 595 602 568 579 616 557 577 596 581 611 581 564 588 563 548 587 558 595 563 596 591 573 603 558 577 591 607 625 642 554 605 606 541 579 572 578 591 586 609 572 593 578 554 559 564 567 532 634 583 612 571 564 595 576 607 556 589 562 582 552 572 545 588 569 596 560 594 543 563 620 598 579 591 606 588 575 510 572 586 580 611 584 522 572 586 597 510 554 599 599 599 588 575 580 557 579 581 564 547 603 553 581 542 569 557 566 574 557 583 578 574 583 569 563 565 572 554 608 505 560 557 585 549 555 556 597 531 604 526 534 611 557 570 579 556 566 536 560 550 520 520 539 512 558 575 562 586 562 525 536 540 565 575 610 590 564 569 542 551 532 560 596 543 562 545 580 576 572 550 568 594 557 606 577 524 547 560 559 514 550 578 571 554 563 569 556 558 582 523 561 572 593 548 553 534 529 528 551 573 536 545 525 531 586 564 554 535 578 527 576 555 558 532 586 544 551 547 573 588 539 529 538 579 531 516 563 528 574 566 570 528 514 561 552 582 553 552 566 538 520 559 570 554 541 536 543 560 578 541 559 531 553 563 539 531 587 526 525 534 556 561 578 570 567 588 526 562 559 517 534 523 532 541 574 549 553 544 514 547 538 603 558 549 592 535 509 525 557 581 561 558 520 510 543 508 555 544 547 574 536 533 562 547 493 534 534 534 572 489 517 570 570 533 589 544 522 565 484 516 542 535 526 519 554 562 517 535 531 566 538 540 536 519 524 563 520 567 551 557 576 515 522 531 555 535 478 492 533 521 518 538 536 579 528 545 537 501 478 552 505 534 538 511 566 534 550 554 539 502 540 563 502 549 491 507 550 552 523 524 548 550 526 531 536 506 543 516 568 529 538 541 517 596 537 542 516 536 529 560 554 576 499 571 549 517 550 546 562 495 538 522 518 538 569 556 572 576 548 517 588 516 528 560 539 516 471 541 467 537 557 533 551 574 549 526 509 548 521 526 572 565 498 552 518 507 540 572 509 517 502 498 543 541 546 535 495 531 562 508 539 524 510 512 507 586 499 509 566 497 537 546 523 510 527 534 541 535 532 491 530 542 537 538 489 535 521 523 508 532 512 513 536 545 516 536 532 550 522 538 524 549 529 513 522 561 500 537 527 494 551 502 504 515 544 512 544 553 549 523 500 511 515 508 528 506 511 491 523 512 504 531 467 485 493 532 514 512 548 514 512 535 554 468 513 549 579 520 477 499 492 527 528 513 495 553 492 526 518 508 499 482 442 508 523 514 492 478 461 527 536 525 508 505 501 515 503 534 488 518 455 487 541 514 525 482 521 518 522 517 485 509 476 491 428 501 533 467 502 504 504 481 506 471 485 477 504 505 524 561 480 478 521 498 479 493 479 508 500 512 531 506 512 483 538 503 481 515 509 480 501 504 483 514 532 481 527 548 521 478 498 494 489 496 487 497 504 501 474 483 518 451 534 497 522 488 534 539 520 492 524 503 491 479 490 481 497 450 526 475 536 505 488 491 493 518 486 488 518 517 469 495 508 463 519 477 504 506 517 497 523 502 501 505 520 501 474 508 477 473 520 524 532 517 514 487 509 503 451 486 499 493 542 490 522 534 485 466 491 501 472 505 494 527 517 483 487 535 510 494 481 480 450 498 464 525 527 470 467 527 505 496 471 511 525 533 535 517 489 488 510 491 447 495 493 487 498 481 496 453 503 513 496 514 478 524 504 488 495 498 516 519 513 497 499 476 530 496 478 523 463 497 486 523 515 484 520 475 515 520 505 502 465 485 496 495 476 479 469 486 495 496 522 526 525 473 483 441 452 480 479 477 526 500 488 490 523 505 494 482 466 485 490 491 525 465 504 446 518 470 506 444 489 490 525 490 495 496 522 461 483 513 501 484 467 474 508 450 476 494 502 527 472 495 472 495 497 461 471 495 521 514 482 446 484 471 501 459 483 507 483 513 451 495 518 434 496 492 465 509 536 504 491 494 492 430 469 500 492 464 522 467 520 512 503 455 482 498 489 505 424 481 503 430 490 503 502 500 479 497 488 463 471 467 485 477 493 456 499 467 497 449 506 482 494 477 483 482 470 502 501 474 503 479 513 468 470 483 466 462 458 492 465 481 481 486 517 464 456 505 448 481 525 454 475 479 463 454 467 520 480 469 485 484 449 512 481 485 473 489 475 482 516 475 462 492 471 506 468 474 506 476 485 441 472 452 451 466 465 465 517 445 482 513 462 483 503 494 464 470 518 473 492 486 431 446 506 451 487 518 465 442 426 487 513 455 482 479 521 449 471 456 460 479 452 439 458 491 445 482 472 498 517 527 468 494 519 469 488 446 494 478 442 490 470 476 465 460 501 475 484 434 482 483 483 519 467 501 473 449 484 456 457 501 452 484 477 446 437 497 473 433 436 457 462 455 465 446 469 499 497 487 476 482 474 458 493 472 473 466 510 476 472 493 462 456 487 486 431 459 445 442 478 500 465 452 435 476 465 500 461 444 414 434 470 460 498 504 473 451 466 484 459 470 471 470 489 487 452 439 480 450 475 430 479 440 449 497 465 452 464 464 459 452 464 464 475 430 467 476 527 435 448 456 443 473 457 438 482 480 485 433 489 487 476 471 490 505 466 484 481 464 467 463 451 500 471 484 470 481 495 504 526 438 496 417 468 432 498 434 482 485 443 454 483 512 469 470 454 449 467 449 491 442 457 483 486 487 470 462 480 470 467 481 483 419 457 439 476 478 476 455 444 440 469 471 449 456 460 467 475 473 465 489 448 470 475 464 452 453 470 454 458 461 453 438 464 476 468 434 465 433 454 477 423 472 471 448 447 432 462 425 442 444 435 429 457 437 457 442 471 437 447 479 467 494 455 436 459 461 470 476 472 438 473 455 450 455 472 453 469 422 452 469 447 461 470 471 454 469 426 409 447 442 441 446 440 474 475 463 458 496 479 488 459 457 458 474 471 467 403 427 498 426 458 455 423 444 492 439 451 447 457 466 488 482 484 435 464 434 425 436 429 441 468 432 445 478 411 443 461 443 481 466 408 427 463 464 429 453 386 448 461 438 468 487 437 459 454 460 464 493 509 468 433 461 430 487 449 467 438 428 492 461 455 445 466 469 469 410 471 468 496 449 473 452 456 457 458 466 497 478 452 453 442 385 463 451 448 461 426 469 445 466 445 451 456 434 445 446 430 435 384 430 459 429 437 471 467 456 454 452 456 431 465 477 423 454 423 389 471 489 456 419 453 473 458 427 455 464 444 426 405 422 433 420 446 452 476 462 430 422 388 461 471 456 447 479 449 431 449 465 452 444 436 435 422 445 436 428 441 414 442 436 427 458 442 360 459 416 397 425 443 472 412 460 434 444 430 452 441 434 443 471 442 413 421 424 450 485 433 450 454 418 466 466 415 433 390 446 452 438 467 448 418 424 442 459 467 437 403 449 426 439 428 441 416 454 430 463 427 404 405 464 433 428 447 464 407 475 473 442 441 396 424 465 458 456 433 473 458 445 443 436 419 414 471 415 467 478 422 411 454 477 460 460 430 421 441 451 430 422 478 427 442 418 439 439 390 446 427 396 447 455 441 392 435 412 456 399 445 446 404 414 447 412 443 473 414 439 467 485 426 459 401 440 437 450 433 442 412 441 396 418 440 430 421 464 386 446 424 438 451 442 416 465 417 424 445 436 476 461 435 405 431 398 407 387 436 414 439 414 383 454 414 404 462 399 459 427 407 437 440 441 421 417 413 417 434 472 441 401 380 429 436 427 410 427 461 431 412 407 457 452 459 452 399 416 401 463 434 413 438 410 413 400 442 413 416 398 444 417 441 421 440 410 463 416 451 429 406 416 418 426 420 429 428 422 439 420 448 407 411 429 420 429 412 420 376 440 423 406 380 426 432 438 427 405 410 404 425 411 407 415 459 415 395 410 434 425 404 457 446 443 445 441 380 410 407 433 378 426 437 402 441 416 383 401 447 431 430 435 450 399 380 449 408 473 433 398 431 412 447 413 481 422 473 417 399 413 430 428 440 426 409 422 400 452 430 425 429 405 443 440 423 391 423 395 396 422 389 427 369 398 438 415 447 422 424 459 420 424 425 433 426 420 345 396 432 445 424 434 420 415 401 448 394 406 409 413 423 439 377 436 408 434 382 419 432 407 394 450 407 448 431 382 414 409 421 409 434 401 373 413 408 442 443 400 435 417 410 398 437 419 390 395 440 401 433 419 433 438 399 392 426 423 387 387 413 417 407 410 407 428 437 422 386 485 369 404 395 401 408 421 426 399 396 410 409 396 402 412 436 404 398 420 416 447 417 433 388 420 401 422 373 417 407 398 368 432 443 412 428 399 417 419 431 420 380 423 417 418 415 413 431 419 384 410 442 443 419 443 437 391 406 422 406 427 407 434 445 399 409 403 392 432 407 414 410 427 438 437 449 377 418 424 417 411 389 403 384 380 419 386 403 404 390 421 403 414 387 424 410 396 411 376 431 410 388 368 398 386 403 393 383 428 426 445 389 420 428 391 356 399 391 375 395 429 413 438 437 416 410 409 409 425 392 431 383 406 384 421 404 436 413 417 366 420 415 410 389 399 399 409 435 393 445 449 404 424 413 383 389 403 396 379 387 397 390 418 426 414 430 401 433 402 403 430 393 409 360 441 381 433 418 410 351 386 383 412 392 411 359 426 379 388 355 392 420 367 371 413 397 393 418 423 415 426 361 406 396 410 389 393 396 414 381 435 391 379 431 406 406 390 443 404 387 401 403 391 407 415 397 420 374 404 341 410 404 384 423 364 399 390 374 396 392 391 414 405 394 407 400 420 405 368 382 397 441 420 395 383 423 408 384 439 397 392 376 392 420 397 423 377 415 400 428 425 383 374 361 403 422 385 387 407 401 412 396 384 404 378 378 408 443 401 393 439 405 357 381 390 394 394 393 386 371 370 388 399 398 391 428 382 428 403 386 370 415 367 432 383 403 405 399 393 379 369 364 368 407 391 397 400 415 385 432 368 397 381 429 393 372 385 394 404 380 393 358 373 387 386 391 396 414 430 400 385 407 391 393 413 383 390 389 417 390 402 370 395 395 385 384 391 376 395 435 403 388 369 351 417 395 384 375 362 401 392 412 421 368 425 400 369 425 363 392 397 382 380 397 408 401 390 399 408 427 392 341 366 370 337 400 406 401 389 356 406 402 386 389 360 367 377 382 411 397 414 413 389 384 386 375 408 417 420 368 370 387 384 398 407 365 348 402 352 395 379 390 357 370 387 403 384 400 400 386 369 438 392 382 368 371 378 415 361 397 407 403 390 412 386 371 390 387 438 395 359 370 387 373 395 360 366 361 421 409 412 366 392 384 406 411 416 405 372 378 371 386 399 379 387 392 363 399 413 373 427 388 402 402 396 392 387 399 380 375 382 379 376 382 391 401 397 360 375 373 386 412 363 366 374 399 363 391 411 374 361 366 396 377 397 379 400 431 398 368 400 395 395 361 418 355 386 393 392 392 363 424 375 367 393 386 386 362 363 393 401 385 397 349 342 389 362 368 428 364 349 366 403 359 374 352 398 389 407 384 369 397 378 391 367 355 387 371 323 387 354 408 355 390 368 359 371 407 412 390 362 376 393 361 394 377 375 386 387 400 396 412 380 380 382 369 391 367 359 366 402 359 399 409 407 379 385 414 367 406 380 397 385 367 378 373 398 368 403 358 396 357 431 380 343 376 372 387 374 395 368 394 388 410 396 364 353 391 353 383 376 423 398 387 391 369 391 366 371 369 404 403 411 366 382 373 388 384 399 394 367 373 373 391 356 383 374 398 382 370 389 375 381 345 386 391 392 338 362 371 366 376 367 376 359 372 391 340 384 343 366 381 377 369 389 376 389 351 355 353 408 398 385 362 341 373 360 360 424 405 393 373 371 406 403 385 336 353 387 353 362 375 339 361 402 361 373 385 386 331 365 356 395 355 392 405 397 379 393 418 363 361 359 369 361 391 389 386 365 357 369 365 367 379 396 362 359 355 376 366 350 376 367 381 387 349 391 353 370 379 351 402 333 331 368 375 347 376 388 392 361 384 405 378 374 385 360 361 387 394 346 362 355 367 387 388 376 352 376 391 327 385 364 356 399 393 363 411 385 376</intensities>
			</dataPoints>
		</scan>
	</xrdMeasurement>
</xrdMeasurements>
